new3                                    
   1.00000000000000     
    17.3276996612999987    0.0000000000000000    0.0000000000000000
     0.0000000000000000   15.4724998474000000    0.0000000000000000
     0.0000000000000000    0.0000000000000000   88.0833969116000048
   Cs   Pb   I 
    96    96   287
Direct
  0.4979033429170673  0.5051166137337249  0.0640270809681448
  0.4922682639794239  0.5147604537578960  0.3077789659470734
  0.4932377850676409  0.8509830823684169  0.2250069252093616
  0.4933584546733623  0.1798459309203238  0.1424720062894516
  0.4955463995436258  0.1828734114085097  0.3926631270647322
  0.2501276687297639  0.9893620627563651  0.0666443753707723
  0.2434881177097523  0.9842297908105910  0.3157272765792958
  0.2430842325526886  0.3186390193571730  0.2335684268897120
  0.2439039440949687  0.6522468073330675  0.1493650654556055
  0.2436423080391998  0.6586425497188406  0.3988712742880146
  0.0048523971822719  0.8197590409544415  0.1072997843423372
  0.0064203427534330  0.8207766221177163  0.3574348882181387
  0.0068899088133377  0.1500000284667436  0.2748450142310382
  0.0071116926842556  0.4871748549736877  0.1917215229326036
  0.0040896107961994  0.4968256198878641  0.4382679576326945
  0.2561832358506256  0.3433174231640203  0.1012313284380862
  0.2576432567893595  0.3477803526384602  0.3503446747500467
  0.2568613356197447  0.6818068761398489  0.2664349347039980
  0.2572447499498394  0.0156185839909510  0.1841714904449366
  0.2503566916153956  0.0131793098616863  0.4330646165643365
  0.4918812300090581  0.8065602144630697  0.7663701655945118
  0.4952734553831732  0.1489655971860604  0.6018414574955072
  0.4925121585329814  0.1416788960023963  0.8501203225322459
  0.4925615359582802  0.4748185356154525  0.6842178607021594
  0.4992535437810460  0.4782774108895236  0.9329456620255752
  0.2438739159310487  0.6704357029566914  0.6072364943885271
  0.2447659202847773  0.6685523483977550  0.8577063271533865
  0.2422501690628606  0.0031870085828585  0.6918280321590354
  0.2493590190316229  0.9898089909988653  0.9369415678813739
  0.2434495818317788  0.3379152617781722  0.7748848521650353
  0.0074184415453574  0.8376541432808570  0.6495342617811621
  0.0071827196738771  0.8309784278566117  0.8987986752817906
  0.0071411553696651  0.1714032749582534  0.7336654197341278
  0.5008585589876412  0.5021595029363004  0.5676610500969990
  0.0088024437012248  0.5050288692501987  0.8161725491665475
  0.2545534139657712  0.9826207995020314  0.5632396394972816
  0.2568403225347188  0.9731682723829918  0.8080560698617087
  0.2548276046961535  0.3097949865737074  0.6424649625785931
  0.2558171837001107  0.3073134532962885  0.8928580313979797
  0.2555384124358600  0.6388325196189371  0.7252458491934106
  0.2520916987231029  0.3199796164918068  0.4709324086791086
  0.4869756423362670  0.8768579390318694  0.4718954397498827
  0.2573795169445172  0.3567401148874118  0.5293178300753900
 -0.0008529072451601  0.7991570919815170  0.5285170818482049
  0.2484813982126776  0.6749785691765630  0.0290676135312628
  0.0124121440607766  0.1322479870504626  0.0287455797678767
  0.2621759134179849  0.6145268634321014  0.9719867663369927
  0.0040830039642532  0.1696730313769603  0.9707153172759807
  0.9977705718566053  0.5051607196471295  0.0640144847795167
  0.9921871537558205  0.5150765653816196  0.3078099965114438
  0.9931962856563635  0.8510474031318784  0.2249567279372102
  0.9933852173184234  0.1798109094607730  0.1424843840740959
  0.9938101490244096  0.1834963424199220  0.3928438323996759
  0.7501036961391350  0.9895553868520157  0.0666247397286144
  0.7437924711355731  0.9840582256181070  0.3157046710333801
  0.7432247943749755  0.3186115606570637  0.2335613516337859
  0.7437775149056300  0.6520553551915819  0.1493231060442980
  0.7444414095010249  0.6586012849150682  0.3988640861863281
  0.5049795336449563  0.8198865596158256  0.1072958251510911
  0.5064759702818603  0.8219017386730997  0.3572346630030973
  0.5066439841787854  0.1496583535761850  0.2749350463244575
  0.5069479765257457  0.4874082681264668  0.1916895018634867
  0.4987542024715796  0.4979943706207307  0.4357678671234006
  0.7562809728750437  0.3432824784700454  0.1012108325043912
  0.7572244533528187  0.3478698301828153  0.3503844036578716
  0.7569060955113144  0.6818209165278039  0.2664129234601600
  0.7569664080364170  0.0156627777004122  0.1841727045321390
  0.7508618149203500  0.0126447244340629  0.4329637309654628
  0.9915831650374218  0.8064813159544270  0.7664264964958815
  0.9935392708112035  0.1505100208029852  0.6013297331870501
  0.9928258966825739  0.1418529890009544  0.8501426552086996
  0.9923259893375392  0.4743168678201303  0.6843310295424333
 -0.0004859622768294  0.4782665251043486  0.9330003022382435
  0.7406854180356698  0.6702905871718067  0.6072980511339942
  0.7449047910605161  0.6687754867685733  0.8576797026983980
  0.7422301171132888  0.0030950797604431  0.6918120950165296
  0.7495234749587261  0.9894731264011465  0.9369919279717908
  0.7434584539225234  0.3379167187842084  0.7748896293260439
  0.5054225325377889  0.8375909971131238  0.6492755656853338
  0.5071606748494502  0.8309386110264446  0.8988104094566278
  0.5071227854508218  0.1715208726364053  0.7336836828175965
 -0.0021429201139551  0.5072177338236311  0.5683926514261403
  0.5087788514012210  0.5047740590464309  0.8161443396509394
  0.7504934423374610  0.9880126290657094  0.5635843441047623
  0.7567407553468355  0.9730893056475207  0.8080378634740529
  0.7550993933133627  0.3084113800988325  0.6426846269059372
  0.7557844251680642  0.3071981849515759  0.8928987079027884
  0.7552249900670206  0.6384427468907763  0.7251557206208292
  0.7458008415921800  0.3195799510172601  0.4706367066762272
  0.9900756929326889  0.8779688761664143  0.4717017479248128
  0.7169588311056290  0.3609343839751818  0.5288399525240848
  0.5009885957307078  0.8115984386739481  0.5289140925028041
  0.7483613998336948  0.6747919891044626  0.0290408706801790
  0.5122974536808405  0.1321056713933440  0.0287219856212360
  0.7621076744205103  0.6142283146966013  0.9719671358218135
  0.5037429266349969  0.1693511071556427  0.9707441256547636
  0.2503875148241789  0.6617838184974606  0.0851134487132925
  0.2485016905190803  0.6685721787741962  0.3322022447187394
  0.2500170286019235  0.0007806279189268  0.2499229154044651
  0.2511228770812808  0.3318448070606373  0.1676969094923765
  0.2489643057520923  0.3391655541818814  0.4143020286762510
  0.4991850438638260  0.4962771077198270  0.1268594892474706
  0.0018098432645385  0.5049547823786016  0.3730789647145751
  0.0035042738584701  0.8270751297860969  0.0417729930954914
  0.5002348722662716  0.8329746066260033  0.2910864196658006
  0.0007077571389235  0.1673699722814554  0.2086033464031359
  0.4969841128944226  0.1719056456749576  0.4578417293837714
  0.2450252633444633  0.3297824313532361  0.0396542000781743
  0.2495538688040076  0.3333741368375673  0.2913670563436332
  0.2503774986066284  0.6680024016505769  0.2084354084723824
  0.2576194447101438  0.6707005884886033  0.4594765297817154
  0.2493887245123407 -0.0000192044898919  0.1256220423334709
  0.2497305775142506  0.0010631624131160  0.3739394318608319
  0.0006177023266876  0.1674720493498464  0.0835383731902657
  0.0006129796498388  0.1677001982159752  0.3326658148759037
 -0.0001462219544976  0.5002183341862413  0.2497510248134737
  0.0001684779911117  0.8338900192005992  0.1669846692265275
 -0.0001641639521192  0.8328588429302076  0.4163048040665843
  0.2489693484950293  0.9882390534304979  0.7501142712906146
  0.2469120278462322  0.3224420260896519  0.5836089990430831
  0.2501134475173055  0.3225808375712662  0.8329877390955935
  0.2488348213476783  0.6554761893198410  0.6673923238229466
  0.2508209702738895  0.6573959804202140  0.9165938290185293
  0.0053444143026083  0.1488984353457053  0.5402300067007193
 -0.0004415408398626  0.1556103747255574  0.7916005431167414
 -0.0015811421428749  0.4888114881519172  0.6263220908137844
  0.5000533801393252  0.4889920285569284  0.8744547923212878
  0.4985339234214912  0.8218034090903147  0.7085727691763462
  0.4959401588224854  0.8220841424524488  0.9604075498764543
  0.2457274949573824  0.6594327951463567  0.5418493682614905
  0.2509275152882560  0.6553406150870766  0.7914782901303574
  0.2504010440218483  0.9935828998372443  0.6269420461884091
  0.2501518897474138  0.9861928736428304  0.8733294234208213
  0.2499100546823255  0.3218581784462549  0.7090611052534525
  0.2546485171145299  0.3181590767892620  0.9581430666646161
  0.4989386808102326  0.8284200436431364  0.5851797232369946
  0.0014605024929111  0.8212702248687573  0.8324964553506632
  0.4976171729782318  0.1581243336603480  0.6680053550764644
  0.0014607451135612  0.1511082102715841  0.9146683908724256
  0.4996465292067281  0.4892422775146668  0.7502290526707245
  0.5010794944088239  0.5068898021365290  0.4982661570841357
  0.2509595096124323  0.0019344701964819  0.5009878077421175
 -0.0008395628760510  0.4861513343575584  0.0009171152606814
  0.2507638170572195  0.9853681870711833  0.9989579390128982
  0.7503694807475573  0.6618203245564565  0.0851023325568781
  0.7490319682471331  0.6681820712347076  0.3321951940510410
  0.7498584875643467  0.0003914574561195  0.2498142125778489
  0.7508284467461041  0.3318317017977372  0.1677028007444079
  0.7492410822742318  0.3405743885099883  0.4144364642204468
  0.9991280410479340  0.4961916167147386  0.1268569056800321
  0.5013609958208006  0.5055001351610441  0.3727579663239072
  0.5036095876966071  0.8270421992001368  0.0417472437385954
  0.0001777755440671  0.8333352746414238  0.2910830895056172
  0.5005752768626968  0.1673344008556142  0.2086115997260060
  0.9971041295014799  0.1723389212502466  0.4580815967764648
  0.7448709177320750  0.3297975429348706  0.0395689382704036
  0.7494527468973036  0.3329774290867457  0.2913324161206066
  0.7503876821592182  0.6677789190759388  0.2083730684853312
  0.7475014901860240  0.6704781762918756  0.4596368600836234
  0.7494838237550382  0.0000206959166689  0.1256200305581743
  0.7514754318192731  0.0011696045459878  0.3739919025155620
  0.5006049157521741  0.1675286868759025  0.0835396916630450
  0.5005576515251595  0.1669627807218738  0.3327110603109090
  0.4999763212635014  0.5001041834024766  0.2497102652161684
  0.5001663727244359  0.8339709620009816  0.1670006601057129
  0.4997093939466755  0.8351991333611712  0.4157717630470319
  0.7491997351139327  0.9882841229479732  0.7501295085742460
  0.7495309832668658  0.3229862631640594  0.5835657448157244
  0.7500856426012492  0.3225318658536148  0.8329790769494075
  0.7486537969375111  0.6552521226524145  0.6672809769681147
  0.7507343825925484  0.6573443093983989  0.9165982245468890
  0.5033717999910577  0.1581647374629684  0.5398847780815249
  0.4994134494975288  0.1554717657681690  0.7915373759183054
  0.4981346042335082  0.4897679428519734  0.6258454759990256
  0.9997368780149275  0.4890908502934462  0.8744813950825463
  0.9982062534845465  0.8213904470530313  0.7086034793873688
  0.9958048226786240  0.8219842725932451  0.9604136986182503
  0.7455150883597245  0.6608985984718768  0.5417002559570763
  0.7509248119515307  0.6552761427597710  0.7914426705348464
  0.7508422431690221  0.9927461553553026  0.6270999404421534
  0.7499140646410065  0.9864422206954040  0.8733469317938757
  0.7499434450246245  0.3217824383760617  0.7090441189689048
  0.7545588101127028  0.3182694463101567  0.9581831357509684
  0.9975706143328607  0.8253287013895826  0.5858649770268295
  0.5015070958510612  0.8211645475797031  0.8324777255441955
  0.9979480353675940  0.1571423191397421  0.6680696381709356
  0.5017391230402092  0.1510535213080421  0.9146868691639130
  0.9996853290684165  0.4893130171846720  0.7502282707513385
  0.0021930914745351  0.5176300696567699  0.4974459085093125
  0.7506805162220543  0.0029238164626340  0.5006540292406005
  0.4988930017347832  0.4861206155583320  0.0008840264419986
  0.7508826254482623  0.9855345942397904  0.9989543319951457
  0.3974719821545055  0.5810818957687844  0.1010462775038010
  0.4017816713807425  0.5854473289695593  0.3461622480275765
  0.4015476519388245  0.9126270581590444  0.2638773381737093
  0.4040686732125197  0.2493290808525458  0.1813684578885437
  0.3881633228321557  0.2492105642446160  0.4312268376996777
  0.1526489052375583  0.9167960047066396  0.2770988097121881
  0.1536839096763694  0.2516316994351993  0.1950746021750791
  0.1319459209336727  0.2517985828122627  0.4377900931338689
  0.1458916351385884  0.5798940189632449  0.1109577785612253
  0.1551336190027549  0.5877242540478596  0.3601159228173195
  0.1005448247186103  0.0529614427590144  0.1067042614126001
  0.0984815827867021  0.0500779815381143  0.3555559044947316
  0.0991005985945355  0.3789263771231633  0.2720420087053604
  0.0999048419260792  0.7161311539977534  0.1895551050028188
  0.1074900903576662  0.7251555992143460  0.4395987581839316
  0.3526326444809357  0.1135412264365962  0.1030713076753982
  0.3493388698088103  0.1148270189647151  0.3512978369552886
  0.3489201550725461  0.4511958539127230  0.2689056041792672
  0.3488299352010422  0.7862029218071086  0.1859934301203722
  0.3500504264703465  0.7793138512354165  0.4344177896584110
  0.1099835516815369  0.7490469123381548  0.0686024788175708
  0.0959705955281794  0.7516572502248547  0.3187393311159327
  0.0985376305480564  0.0875476600671939  0.2361315228595469
  0.0990993991824817  0.4146516200256760  0.1535007099183763
  0.1000478571776328  0.4254603536021014  0.4001706709902593
  0.3462726279017850  0.4120173276018513  0.1401601586591552
  0.3536012445991805  0.4228468982214619  0.3889989398198249
  0.3662429284833105  0.7532226377232852  0.0623019600164078
  0.3467451259149827  0.7497074118040413  0.3051300062553238
  0.3484738305291024  0.0836137354709204  0.2229603180118506
  0.3927216394593768  0.2744522595950543  0.0604327676199031
  0.4003713759181584  0.2862652146872338  0.3106498335459417
  0.4012543545954576  0.6221741966815060  0.2277957272831910
  0.4009858150613348  0.9497645753905580  0.1443173282413547
  0.3990721539722090  0.9501240424334041  0.3934575189229682
  0.1526598808808932  0.2235130111767878  0.0656786722155357
  0.1527819348125178  0.2144424174790790  0.3141894045029422
  0.1514806379918778  0.5494253984247462  0.2310953190781035
  0.1512871257864749  0.8834237831690278  0.1484677479277874
  0.1470471526925733  0.8877818347681992  0.3970391765183565
  0.0211719642076662  0.3351511590404528  0.1042693143729865
  0.0238703027363049  0.3346503969905374  0.3537106225705446
  0.0265361171030952  0.6648311042883329  0.2709673938750081
  0.0251033746722546  0.0017616997808931  0.1875731230214429
  0.0119479310494600  0.0128603725347109  0.4353151623441675
  0.2682425774634383  0.8287515381143705  0.1060343524155329
  0.2758031724672534  0.8325984194549421  0.3538940529313388
  0.2774993576524402  0.1640561018907534  0.2714679168488325
  0.2775758632293996  0.5009623255358825  0.1878016769481187
  0.2672286227033710  0.5030760870814112  0.4370524145297464
  0.4887790282962324  0.9911502056973738  0.0647115928685772
  0.4764975275750253  0.9987088368676501  0.3124025933880133
  0.4725368027858665  0.3355568782309998  0.2288458453423461
  0.4763290381932069  0.6643859285876929  0.1470691849093584
  0.4778046104414861  0.6681320238692704  0.3952881132564177
  0.2347788436650702  0.4971621201068326  0.0629023673163802
  0.2221766166609217  0.4996416093815760  0.3122889054684290
  0.2223617905782913  0.8364965155504750  0.2288169858068602
  0.2245392439317400  0.1661007904832505  0.1465877471998499
  0.2291261274443887  0.1740401666412524  0.3934590500286159
  0.3999763345277956  0.0370880911264128  0.7689474175327893
  0.3941225812006559  0.3749418074484306  0.6031753710617734
  0.3997903501565631  0.3737220040412495  0.8517543528743496
  0.4002848150320672  0.7042473435183557  0.6856133184100437
  0.4001977943343817  0.7120352488847080  0.9351495479475661
  0.1452416014155009  0.4368258817998479  0.6062691333180880
  0.1508848905115339  0.4397961066611600  0.8553714889665708
  0.1488404723739972  0.7741175000615478  0.6894230719080330
  0.1435975495949359  0.7635542321817551  0.9395440690398638
  0.1501539841684429  0.1093202681231934  0.7720575744383639
  0.1030258142494126  0.9121263442833174  0.6105379437965001
  0.0981792594677397  0.9015264935565670  0.8596767625076958
  0.0974525215081540  0.2374276710167207  0.6949086585530138
  0.1212516889303713  0.2393158416984673  0.9371070202121784
  0.0991508905238257  0.5710736903740479  0.7770625557893751
  0.3531663245742898  0.9118375488740621  0.6008142139655106
  0.3500114919606731  0.9056196611670092  0.8464375772891731
  0.3448755256864910  0.2413438939914361  0.6812525019289331
  0.3626890609410908  0.2399160793348076  0.9312633857774751
  0.3481429179606789  0.5752356523152599  0.7639036541154751
  0.0989162694160186  0.6046845949424022  0.6483076197837665
  0.1025791302299011  0.6016931990115959  0.8971201161988589
  0.0985383349003318  0.9398920905963077  0.7307462654796191
  0.0973581937658876  0.2774685989461198  0.5629823590360679
  0.0988498528563576  0.2736031933029168  0.8139009746712382
  0.3569781140635858  0.2139933593498177  0.5609834309364840
  0.3486877278546515  0.2016074518321553  0.8105764650540890
  0.3466965192332173  0.5392334258000788  0.6442404447155421
  0.3527863332277779  0.5402580917295570  0.8939084743273071
  0.3476505885035744  0.8686494263958758  0.7275501346734202
  0.3810385389376928  0.7391878192877195  0.5620496853746765
  0.4033094568573279  0.7389053218039369  0.8052033684742618
  0.4015680625091995  0.0777751099890614  0.6402509995183640
  0.3986940351257495  0.0694052419013881  0.8886015411350726
  0.4004585520824811  0.4084237433204335  0.7229145559126182
  0.1357697198376931  0.7394811652741429  0.5680535263235653
  0.1547834854641328  0.7365700316865116  0.8188314280123700
  0.1500230999499587  0.0750203365166977  0.6533374109086554
  0.1484884532764411  0.0635155450217521  0.8996379246149062
  0.1510123714518852  0.4015038195126393  0.7360627218030051
  0.0147018561930973 -0.0011688306022408  0.5624574745041514
  0.0268177588390000  0.9876030819251178  0.8117647295954823
  0.0228972981291362  0.3219207076704663  0.6462508770769397
  0.0222700964800866  0.3164837705285391  0.8935883008181305
  0.0245385269704894  0.6521165121555098  0.7284772891976817
  0.2719761561294273  0.8234403406921654  0.6464036807200361
  0.2747943941176178  0.8229559021589328  0.8954816457297539
  0.2778826963750383  0.1539410478106202  0.7291597532964583
  0.2670409685757311  0.5010509809367973  0.5653087092523241
  0.2775592510774039  0.4887639315897564  0.8121781493310273
  0.4794806590891784  0.6604516025800392  0.6057141474372770
  0.4766779697285320  0.6575031406842753  0.8540454972927234
  0.4733755224056250  0.9876343869233635  0.6875181258947434
  0.4846180630321249  0.9862888489943438  0.9371180660287582
  0.4735517318930381  0.3244615702294507  0.7712567734101087
  0.2222142632869396  0.8215672700290532  0.7706325246434422
  0.2235304064663351  0.1544750472789745  0.6037900110401762
  0.2238732920397345  0.1564127506562148  0.8537892079721857
  0.2225373344642694  0.4874474079550302  0.6876348147365842
  0.2346723585331708  0.4811417996325286  0.9354397354779627
  0.4772859752523076  0.3581579780147037  0.4737467947173430
  0.0988249470652898  0.5556781977803676  0.5290073105583318
  0.4867125152565279  0.3362980125340153  0.5221450659691659
  0.3539335862257090  0.5787328693553259  0.5172862568744058
  0.4310561496847294  0.6358035706462601  0.4735669958597877
  0.1648942715407944  0.5415931933725430  0.4820136407935345
  0.2313029148764909  0.8499795813282532  0.4759976853037907
  0.1777252971056930  0.1212685888711244  0.5272333967146394
  0.2235906407235441  0.8427588313738540  0.5244236631598205
  0.4179677641261436  0.0269058952669335  0.5160986784842155
  0.3455607672658302  0.0899682594763672  0.4721099241058220
  0.1099805840683911  0.0950038960021818  0.4822681360510017
  0.0222856763690007  0.6396871349539603  0.9762623328324370
  0.0725771452892227  0.3739565566072639  0.0280712299111924
  0.0137205076392370  0.6453364653500759  0.0247584674323259
  0.3311781896861055  0.4577396256755041  0.0154935784988213
  0.4083662719489394  0.3995376491004184  0.9716226135743298
  0.1441244216356781  0.3910601115469428  0.9831937463364214
  0.2785830253652834  0.1346847819100487  0.9743265347983042
  0.1579918690221450  0.9049332117922362  0.0282525421454501
  0.2594992190692250  0.1507206211643400  0.0228346848513973
  0.3990229098107759  0.9187768721243850  0.0177393425309620
  0.3240334198854870  0.8553484678582601  0.9741382688859737
  0.0873995098998777  0.9504215831764328  0.9829873099457337
  0.8974592223651665  0.5811931304922389  0.1010518759910627
  0.9019385103983063  0.5854231895779534  0.3463945362768016
  0.9015247133649986  0.9126181726625459  0.2638670081326804
  0.9040239080395277  0.2493452565211809  0.1813791133913142
  0.8885833061856475  0.2567832665693291  0.4323382284616245
  0.6525369521294907  0.9167826380331322  0.2770632904381718
  0.6536052446159810  0.2517232148840304  0.1950775529801523
  0.6312085493312519  0.2485518528383672  0.4368285268190756
  0.6458761391927794  0.5801052439263663  0.1109756386650318
  0.6550605853307927  0.5878218437042357  0.3600613022914178
  0.6006644978534494  0.0533813524194840  0.1067057039554497
  0.5993719544877566  0.0509965600044389  0.3557617611803847
  0.5989948453825482  0.3786373483679903  0.2720385156973871
  0.5999005777152867  0.7161292448476776  0.1895614392306535
  0.6045242895298342  0.7236720163008101  0.4391769286129087
  0.8526109245732335  0.1134779661489187  0.1030757926782168
  0.8498913247788844  0.1157831715997916  0.3512559487214111
  0.8486168524853694  0.4508211862185609  0.2688937918901038
  0.8483713500868936  0.7862013294388895  0.1858608321808495
  0.8501551906123216  0.7772630895649854  0.4353573515773559
  0.6099224326487138  0.7489163666109747  0.0685935799575033
  0.5963134911961331  0.7512560874904806  0.3186756598759338
  0.5984218057899625  0.0876243914502506  0.2361445082936462
  0.5991087559769444  0.4149426474484422  0.1535081575835650
  0.6021429479284093  0.4240569217403845  0.3992875407659430
  0.8462028537703964  0.4121056490098766  0.1401534377874319
  0.8533373873569494  0.4231464035791214  0.3888639004252841
  0.8659931825116947  0.7530816900599424  0.0622183884877675
  0.8468457224141995  0.7497748739948462  0.3051179394502329
  0.8484850823993649  0.0835527181333493  0.2229463149487055
  0.8928663752335259  0.2744115093407779  0.0604266205289631
  0.9005837258437731  0.2866099546963022  0.3105554104126695
  0.9012248063385963  0.6221574218753619  0.2277952826522592
  0.9011637728849347  0.9497236347707806  0.1442554219507009
  0.8994635570259002  0.9490939304522521  0.3936552727864545
  0.6522398773160862  0.2237632444494953  0.0656024576382032
  0.6522342242963136  0.2140236617141439  0.3141393955021760
  0.6515778414742486  0.5494314947177443  0.2310840409995711
  0.6509299655351158  0.8839295498521104  0.1484515005653385
  0.6489031996856427  0.8880521537945532  0.3969779342403613
  0.5215472493142116  0.3353082233999047  0.1042421221317087
  0.5233680653852246  0.3343819362279377  0.3535544954362131
  0.5266003132589150  0.6646936431918259  0.2709508485845773
  0.5249285625943979  0.0017625223471540  0.1876199307256389
  0.5136038597764195  0.0092877660548889  0.4353909148538381
  0.7680241230098743  0.8289852585655546  0.1059725905741757
  0.7760368736646607  0.8327008915131420  0.3538517537672042
  0.7775514845979719  0.1637248506146306  0.2714218705683730
  0.7775514577157208  0.5009407077962420  0.1877887078377301
  0.7667138641776787  0.5038881256567979  0.4375243827646114
  0.9887030074781916  0.9911407564831679  0.0647065814187451
  0.9768586454564097  0.9992502543032098  0.3123542181427545
  0.9729358853089937  0.3353497226198510  0.2289377451955360
  0.9763050819371655  0.6642723617513099  0.1470555288610441
  0.9778986465648396  0.6670507420965694  0.3958987980352440
  0.7347806335961078  0.4971020843648683  0.0628895956042215
  0.7222671017884990  0.4994889788221602  0.3122450314967181
  0.7224628672636451  0.8361951979076739  0.2287627297974148
  0.7245749783057227  0.1661016156749419  0.1465929805679901
  0.7328414489084204  0.1743169635981264  0.3936120778238903
  0.9000458754789107  0.0370904312504429  0.7689440820158862
  0.8973585334202713  0.3769480618198555  0.6028084127444492
  0.8997650435931479  0.3737372013278041  0.8517539355691408
  0.9001036203038894  0.7035616822217352  0.6857002018861842
  0.9001382615271269  0.7119937512356024  0.9351606738022948
  0.6465593660319366  0.4318540241628101  0.6067056129288521
  0.6510641080496848  0.4399350078834566  0.8553320269291680
  0.6484529329519580  0.7740568062687854  0.6891739332305886
  0.6435877182280980  0.7635041557944238  0.9395456818086275
  0.6501461574647316  0.1092946301133590  0.7720687787121167
  0.6026430105730911  0.9110816715270582  0.6108290474447284
  0.5980178661007614  0.9013946243070085  0.8597160920528099
  0.5974911822253141  0.2372655327788866  0.6948781085094157
  0.6212539521222843  0.2388481960469831  0.9372545108951561
  0.5991208209189678  0.5710688649041986  0.7770590668405549
  0.8523231713056345  0.9130303349464676  0.6005076761523248
  0.8500155318496143  0.9066536851645182  0.8464863723552563
  0.8454524214577122  0.2403424770452462  0.6814116799456881
  0.8626560262273828  0.2397891053452425  0.9312576265930259
  0.8479564919755261  0.5755324905438010  0.7638259261472745
  0.5988210768028610  0.6063285316469035  0.6479265743778007
  0.6026293764196838  0.6016714291372404  0.8971011973383635
  0.5987519491713603  0.9401252378199809  0.7307227401626384
  0.5973840883806258  0.2669927645822402  0.5654228257173238
  0.5989788284377929  0.2735723831166266  0.8138870219362214
  0.8566645648422181  0.2261031223073595  0.5581038845098673
  0.8485922040467663  0.2012300078848943  0.8106053401797177
  0.8457373735527476  0.5380463721530487  0.6441126345089145
  0.8519453247748049  0.5398083674398484  0.8938281890921099
  0.8469238502554283  0.8681109847597083  0.7274947279796398
  0.8814256176727744  0.7390431022260556  0.5623627945104573
  0.9024822709348810  0.7400680524897802  0.8052446802026302
  0.9025129263785495  0.0769139290806213  0.6402687373029127
  0.8988795927575569  0.0689523383750758  0.8885792316943948
  0.9004550442050355  0.4083806529590872  0.7229221261055427
  0.6412774509350494  0.7460492606434577  0.5680398224215431
  0.6547862953424924  0.7365520682422280  0.8188044350097384
  0.6497756508098367  0.0748356673543610  0.6533015009440190
  0.6485213502346528  0.0629679470100465  0.8998460435966102
  0.6510255653404292  0.4013310761076970  0.7360393369549444
  0.5129628315053513  0.9935501134663021  0.5629410074078018
  0.5267002050023517  0.9883024432095886  0.8118825330454655
  0.5228368780561106  0.3226612862136773  0.6463632056614884
  0.5222758925220415  0.3163243294112875  0.8935948458769420
  0.5244508150510212  0.6519946568294123  0.7284549874983078
  0.7756948537655226  0.8227126889799852  0.6464215613265489
  0.7747741407186027  0.8228256135647322  0.8954824226246700
  0.7778785693427090  0.1539296673953374  0.7291624814823288
  0.7568068827004749  0.5016867545807292  0.5653427744638043
  0.7776538867024353  0.4887530959120411  0.8121782434960926
  0.9779364359925977  0.6638468768688265  0.6065675627258781
  0.9766405563342444  0.6577709841882056  0.8540665751147308
  0.9737834588068771  0.9876560942613399  0.6876301181081423
  0.9847958096963596  0.9863297573395302  0.9371101414069339
  0.9735717095264438  0.3244336991768523  0.7712564590926712
  0.7220694051981814  0.8215482862041888  0.7706257609831186
  0.7326692535272563  0.1543245541012162  0.6039605669582723
  0.7231453413439749  0.1572499011995923  0.8539980908212963
  0.7227813476080969  0.4868564903778513  0.6874959124890671
  0.7346350853876752  0.4809121019650921  0.9354312505773358
  0.9745518124521080  0.3432605962576724  0.4804737990992127
  0.5900161781457695  0.5828578066188116  0.5287971260050186
  0.8613883029346279  0.5513159813753299  0.5209073162661627
  0.9229348250590721  0.6401860260761933  0.4748013750398178
  0.6683642910463030  0.5395434227657011  0.4841948800623134
  0.7231627491723007  0.8524389101082115  0.4757082793065857
  0.6757151066677097  0.1143851457008408  0.5278069735712398
  0.7339773326512863  0.8411195096660544  0.5239485282723357
  0.9219033832368478  0.0228865575715723  0.5157648898806473
  0.8448999521585991  0.0892539780469894  0.4719470560700159
  0.6083907389515751  0.1004666616517676  0.4830506850194190
  0.5222301659274839  0.6396662797504630  0.9762244018393504
  0.5723425877591520  0.3738959830286543  0.0280503864339262
  0.5137904354749354  0.6451743627529697  0.0247535558775793
  0.8311780146125193  0.4577973983590057  0.0154923237076729
  0.9083534715582123  0.3996445593595670  0.9716866986928531
  0.6440896146780047  0.3909097919684739  0.9832210553172206
  0.7787061615707943  0.1346034240468602  0.9743353035146788
  0.6581549227237454  0.9045922528001764  0.0282415902584463
  0.7592644424340974  0.1506057927866961  0.0228731261871811
  0.8989629121054897  0.9192168150252230  0.0177729011985086
  0.8240387456439563  0.8551952771761625  0.9741997241196939
  0.5874468080823591  0.9504134342415005  0.9829982647281282
 
  0.00000000E+00  0.00000000E+00  0.00000000E+00
  0.00000000E+00  0.00000000E+00  0.00000000E+00
  0.00000000E+00  0.00000000E+00  0.00000000E+00
  0.00000000E+00  0.00000000E+00  0.00000000E+00
  0.00000000E+00  0.00000000E+00  0.00000000E+00
  0.00000000E+00  0.00000000E+00  0.00000000E+00
  0.00000000E+00  0.00000000E+00  0.00000000E+00
  0.00000000E+00  0.00000000E+00  0.00000000E+00
  0.00000000E+00  0.00000000E+00  0.00000000E+00