Cs48 Pb47 I144                          
   1.00000000000000     
    -9.2886106687899961    0.0000000000000000    0.0000000000000000
     0.0000000000000000    8.6563694928967916  -12.2558283166625746
     0.0000000000000000  -68.7225794690204026  -48.7033364181164572
   Cs   Pb   I 
    48    47   144
Direct
  0.9913909378790697  0.1585048250939701  0.1497091217736016
  0.9636130988514792  0.1361834031851329  0.3982027773679718
  0.9788656669820999  0.4984318745319479  0.0681520676346201
  0.9897651284802420  0.5025001621548536  0.3173256055996631
  0.9951230555734819  0.8293483238077574  0.2331156331586528
  0.4999728485300778 -0.0012974205486048  0.0644917095467924
  0.4919076542673692  0.0071806178306391  0.3124042083203336
  0.4960312476104034  0.3428572300232315  0.2296893218685289
  0.4877140027164677  0.6744963423421642  0.1470458836835334
  0.4747056137414478  0.6947134932274063  0.3957429359893972
  0.0007174919889279  0.1796562825946229  0.2719837502935004
  0.0006333985108015  0.5072777680942556  0.1881490584462683
 -0.0094981097169182  0.4614115856963458  0.4374976253408523
  0.0042972100253614  0.8347826974648433  0.1055001258875810
 -0.0082513732726514  0.8590630832514070  0.3547948284483199
  0.4984736360494608  0.3285632876791946  0.1081801288963910
  0.4892289813194091  0.3252909798058817  0.3550870422666650
  0.5061450999078919  0.6631767563473637  0.2751709380303308
  0.5015259640834892  0.9934934751159613  0.1909690789450046
  0.5424957168036378  0.0025692720476450  0.4375979923847300
  0.9939260848050235  0.4679218934488137  0.6466250774041641
  0.0423391089445505  0.4689117269376605  0.9007509529754307
  0.0209204551495832  0.7976501056100790  0.5622115601281839
  0.9938078032347457  0.8056914245932810  0.8114747934999622
  0.9909588728624670  0.1325462489336740  0.7298538987859661
  0.4855074784596350  0.3215491830835597  0.5588073485676044
  0.4892594081555158  0.3136089142958698  0.8056896437701894
  0.4961746549822437  0.6478078572239861  0.7248650537295026
  0.5080223063548149  0.9757940813704513  0.6415344351601836
  0.5102660692497015 -0.0043585906057529  0.8917388099591983
  0.0059211772373002  0.4809723539155031  0.7664865173014372
  0.0088680634593263  0.8104832830891893  0.6850311116833584
  0.0254106346975856  0.8319745085336335  0.9340305912139610
 -0.0414576075740083  0.1640674582938985  0.5979682156278670
 -0.0038113671936168  0.1544720625749408  0.8483516842854607
  0.5056860620829534  0.6197384708572987  0.6031143237684807
  0.4995921213516143  0.6349970446603738  0.8530203075828946
  0.5013428492247820  0.9664682146269445  0.7703447692594545
  0.5093154063262555  0.3022316997921949  0.6895165813829286
  0.5153167338980433  0.3007745063976952  0.9405260784275967
  0.5207514743008199  0.6411624992995945  0.0313107445795065
  0.5231688787629295  0.6667747511984294  0.9673935114529363
  0.9912514495241284  0.1099993382958763  0.9733709626224040
  0.0214709095651451  0.2033325098542088  0.0313316732228360
  0.5295690980807680  0.3420441589549336  0.4802953012389036
  0.4825454521393563 -0.0012355716078193  0.5149252908515288
  0.0184215972947623  0.4649041808999695  0.5186323954328662
  0.9775538391797152  0.7948093251984417  0.4597613617362751
  0.4950115130262100  0.3350503746630992  0.1689849210627285
  0.4766544153754644  0.3350666116641156  0.4224845611520038
  0.4945865277747564  0.6685591832773570  0.0854389242678962
  0.4947072958720239  0.6703811461448987  0.3369742417165537
  0.4963448673895692  0.0027706489206967  0.2523400454815448
  0.9940865699909817  0.5010769107235810  0.1274603120035683
  0.9790827406599358  0.5035200878791577  0.3804120221442258
  0.0116214743891694  0.8355983309577952  0.0417675803260346
 -0.0023525540223930  0.8387727864013153  0.2945393592667168
  0.9971168056913762  0.1700283978638585  0.2108025989190439
  0.0496119418421357  0.1466556095445993  0.4727961231080042
  0.4974418808529738  0.0010545173776234  0.1274635859138157
  0.4864575403290293  0.0128652943978715  0.3762748696026659
  0.4938296303478637  0.3280643991376546  0.0431756370155525
  0.4931960784829812  0.3415542140948742  0.2932164312556230
  0.4971914574997203  0.6699483841791118  0.2105336164827732
  0.4994081562582945  0.6825431097105173  0.4650063625748976
  0.9952141559778549  0.1650155685215233  0.0862433680221396
 -0.0118469448283948  0.1792105462066072  0.3350688044316680
 -0.0008732947185813  0.5062382886844926  0.2520260382159012
  0.9935374645976454  0.8348382280327922  0.1690110625647855
  0.0000013321836789  0.8292131453987267  0.4185465800931030
  0.5034647811242160  0.6359286823527485  0.6638798077616433
  0.5376125218726642  0.6390561822590669  0.9117371754054491
  0.4908279972262719  0.9678996596496394  0.5799673604980883
  0.4999183600225487  0.9796034822208410  0.8314049123956122
  0.4990916754368473  0.3072105311496922  0.7476142306716941
  0.0147592976750589  0.8062065881164274  0.6234547986761180
  0.0002433207629902  0.8097400832233660  0.8714557172494418
  0.9721593909941342  0.1404512733496647  0.5356473823186789
 -0.0017713899902074  0.1432377486285803  0.7895077667510700
  0.0015218556419396  0.4716324176777040  0.7059223520156521
  0.0293375699312088  0.4769338469222660  0.9563688208303985
  0.4826366156955735  0.2961394907863696  0.6228737228647674
  0.5081426741744438  0.3189615606162858  0.8715922266330679
  0.5134810670454623  0.6391073096069680  0.5375775987767071
  0.4982265164741241  0.6432617904075888  0.7894603357476312
  0.5015926235381091  0.9710698163983220  0.7057672197055948
  0.5129054950821159  0.9784409221409056  0.9550564351172732
  0.0067840126784239  0.4767251106430359  0.5807801881181843
 -0.0094364203001802  0.4805104728095138  0.8309298419594540
 -0.0004584486076713  0.8071920126378765  0.7478521080248312
  0.0130076089535356  0.1341833150783626  0.6651427193659425
  0.0120044145108732  0.1445816005311221  0.9118032513883387
  0.5251337823092427  0.9872024385246361  0.0030299842672443
 -0.0004638220013589  0.5040344317523044  0.0024926242589429
 -0.0057296500413706  0.7978780368069087  0.5020745981276061
  0.2212292391500132  0.3789167429171449  0.1459036643608257
  0.1506103699603817  0.3592314074348739  0.4058443721748576
  0.2058057788900672  0.7095173687070315  0.0633407512001733
  0.2341076202436924  0.7114347233366499  0.3143830964879358
  0.2292021935515171  0.0475263796086855  0.2298712972159656
  0.7494376339826624  0.7840821331080261  0.0646749233446768
  0.7266497746220114  0.7854603862350913  0.3184148313995302
  0.7303175706941981  0.1238502896081377  0.2341588375810276
  0.7285122533531145  0.4582492509445967  0.1502383419620040
  0.7209510074456433  0.4841944388849914  0.4090886226790267
  0.7185232316582989  0.2184111971847917  0.0628990165663149
  0.7467382681961992  0.2268323575152479  0.3091329068439082
  0.7647035700693979  0.5621592253578247  0.2257666879117879
  0.7503935343285314  0.8881892612150857  0.1431646464834629
  0.7385621959624330  0.9094396638678056  0.3932283657329008
  0.2512782954117724  0.2808230142401931  0.0690906737536208
  0.2491832882620815  0.2862362397100509  0.3191450050646452
  0.2676131053030988  0.6128123616713327  0.2371972805954449
  0.2607426058363902  0.9415458533980218  0.1528687913315670
  0.2670952248359255  0.9417694251539460  0.4018302547542134
  0.7708059976559001  0.9559762014681068  0.2758510737602546
  0.7651779283588847  0.2888402537879098  0.1917704227416254
  0.7742862629897207  0.2832448716257634  0.4395020675103154
  0.7517138983382009  0.6244149694480385  0.1088747135573023
  0.7739177012652967  0.6374248670084758  0.3628819775905981
  0.2710063237587316  0.5521554836821350  0.1049164621704536
  0.2588965005462562  0.5502702124149296  0.3603463516135921
  0.2680018857466475  0.8788575435318587  0.2720993936203521
  0.2693836203424383  0.2116293160648340  0.1876709531273990
  0.3105321996422150  0.2005079647154542  0.4445658465487597
  0.2306780701890029  0.1123914972146807  0.1114306243943510
  0.2093986716653159  0.1225029175003888  0.3619240097436699
  0.2285669394601607  0.4523903543760711  0.2790149082054463
  0.2294267735090594  0.7750980235580540  0.1946930395722923
  0.2989819352813913  0.7876470252133478  0.4409604927217066
  0.7516302088987554  0.0499163466281343  0.1025433481033858
  0.7310187084160800  0.0678034469622334  0.3507749916341901
  0.7313036144921065  0.3993620444970437  0.2679279165011924
  0.7318405073008589  0.7247694455200321  0.1842065196944167
  0.7060625038926416  0.7547552889940083  0.4334190855951411
  0.9104369712766699  0.3320048956507413  0.1067744775892536
  0.8979642339516442  0.3426853582945417  0.3590168073750962
  0.9165051034234142  0.6699415487033941  0.2743742608438846
  0.9139171645492945  0.0008416966479710  0.1902613161259561
  0.9563713191196194  0.0019713652569702  0.4409944729089502
  0.4131399500376485  0.1746814255981146  0.2725920942616964
  0.4112168556682484  0.5019536325110758  0.1898058051789245
  0.3549663816336384  0.4994534605425091  0.4439982940195270
  0.4156405528087317  0.8385572436196111  0.1049608344034168
  0.4026623069042188  0.8484734974499107  0.3550555134258311
  0.0835456354611198 -0.0024625664811376  0.0647043413248407
  0.0809896412481868  0.0117986181106987  0.3149361215134697
  0.0834146713250699  0.3375262341618286  0.2317022889130288
  0.0788462749738153  0.6699000103250869  0.1474998836945219
  0.0850934661112463  0.6264801689154252  0.4109768423296687
  0.5821647251988320  0.1690890119361376  0.1476869166310423
  0.5553471805207587  0.1923584753649251  0.3966811929670293
  0.5670400202163977  0.4855490833309136  0.0673115883521613
  0.5799447186729199  0.4994495443011936  0.3173967958413989
  0.5833432393849080  0.8358698059854006  0.2318818105731542
  0.2334695233769132  0.6741236092211338  0.6401032715811803
  0.1952380424092067  0.6669602024561125  0.8925752016995544
  0.2661950536565032  0.0248855216072146  0.5552184969849585
  0.2222476719187906  0.0241609320142862  0.8099044878122424
  0.2229664543597398  0.3491893300013007  0.7251539126910909
  0.7445290520813571  0.1110368465795684  0.5672010230199763
  0.7235264149207602  0.1007963628203255  0.8121782460417518
  0.7288113717655957  0.4258207907300796  0.7279761458653178
  0.7328965659315749  0.7591479065628366  0.6434507594495024
  0.7210261075797070  0.7756813827349299  0.8930389294800573
  0.7720460756915497  0.5236800652483139  0.5555885174662101
  0.7732903145620706  0.5360166545093987  0.8036072323357712
  0.7668064569718522  0.8653618766536102  0.7210285850505419
  0.8105464123519542  0.1905673753608064  0.6337100148596325
  0.7713138313334996  0.2101038878807724  0.8862960916044766
  0.2719670849795911  0.5734038766563381  0.5649550307736841
  0.2696552833210005  0.5762201548744373  0.8167550573353519
  0.2695101170785632  0.9102343872320704  0.7320907479495947
  0.2994047891676589  0.2364196899244369  0.6514486770336111
  0.2707692856882370  0.2877668973785187  0.9012958292985737
  0.7711562106045425  0.2643400722822572  0.7700910136116336
  0.7709552295008575  0.5960812376928539  0.6865995114379310
  0.8597545066222657  0.5994740724628191  0.9289660774528984
  0.8228943464157602  0.9612490986270116  0.6045944909183166
  0.7754569188469189  0.9387518424331303  0.8537574568960463
  0.2860915436410583  0.8408539934663126  0.5993732982741412
  0.2901983443997510  0.8519429611908759  0.8521439231099595
  0.2712490800216117  0.1867007061294026  0.7673552389542605
  0.2746087593878523  0.5192049573844013  0.6830710093690839
  0.2949798489705333  0.5119802137436655  0.9302029535105453
  0.2076686385324560  0.3939972648704116  0.6093563113034487
  0.1788155360842354  0.4315971630134154  0.8636014174198465
  0.2292591851321694  0.7487477172174569  0.7746171035304995
  0.2260994998773611  0.0850502719802052  0.6927674329077577
  0.2530722361849479  0.0941597427833094  0.9375503098711973
  0.7465426332838951  0.3475004768962075  0.5961714407353885
  0.7037358343765965  0.3729902653944119  0.8434075685512520
  0.7280268746009888  0.7014326283164332  0.7631148141858485
  0.7303807916073595  0.0387782894898720  0.6788302033916902
  0.7678145566763308  0.0417342406281747  0.9300929996793129
  0.9170164709137343  0.6375090283308955  0.6020130405631877
 -0.0987268250514724  0.6542252555657994  0.8494417005716163
  0.9157556026955394  0.9735683883312283  0.7691273987021573
  0.9167475000643150  0.3098946117493027  0.6830653066259249
  0.9195382007822431  0.3273851722802245  0.9301463567646366
  0.4169110396490400  0.4779456742220904  0.7678302171535781
  0.4204916310445823  0.8072364379964716  0.6830386041628451
  0.4375202578881452  0.8114841734860532  0.9307744332050304
  0.3098017725605301  0.1251206781904889  0.6031348244794935
  0.4053557381340103  0.1524249439153076  0.8532588665973228
  0.0824377596971727  0.2804616216910019  0.5648099945094954
  0.0816960407079376  0.3114975468644078  0.8107233031992340
  0.0832479482956831  0.6378227165790780  0.7271892153001954
  0.1063115759656124  0.9576769641359618  0.6469249537897005
  0.1006516890288895 -0.0226990304216361  0.8926334518338470
  0.5829812202982945  0.4607023404539277  0.6422397844002764
  0.6918090310590193  0.4844741202046018  0.8900856072952275
  0.6069200792823726  0.7992231859692074  0.5639866200948357
  0.5793537425086472  0.8122468544690999  0.8108458392947018
  0.5817277806037655  0.1351368252953507  0.7276109050712521
  0.2690196173233853  0.9164745884899207  0.9780217853706995
  0.5816605541209297  0.1481140952397558  0.9764313729755876
  0.3489697056097800  0.8650729000310213  0.0263252038912839
  0.4118823752846281  0.1512351571574959  0.0226869339072923
  0.8156453212888217  0.9901216537267801  0.0224456647924875
  0.1199710548078806  0.6470193817845576  0.9749261407338927
  0.2273541773243497  0.4627768183364983  0.0293844327741251
  0.1824683846090242  0.3464945648630820  0.9811973632855115
  0.8968789627721028  0.6863801008776864  0.0169164244936697
  0.7719759051871695  0.4014644618448071  0.0240383187920737
  0.7403704275106199  0.4583733072343974  0.9751011802390590
  0.7488174157364854  0.8742844239213424  0.9749257738208765
  0.1885310628954367  0.1898858615737500  0.5077897315133280
  0.4235554858184956  0.4696119792129156  0.5187761954140685
  0.7341738528855442  0.2624677260188595  0.5238233806019752
  0.7368831169177326  0.1163385517564550  0.4808400328959119
  0.1855107715686117  0.6477575192824848  0.4808654159451861
  0.2812038528015701  0.7727875930029617  0.5249722721244626
  0.8721844670349599  0.9502766592939060  0.5251267816642895
  0.7496564546337819  0.6588824944835694  0.5106390884664697
  0.1832688855296699  0.9444280040862737  0.4812423489456751
  0.6464708261644840  0.8528576587219565  0.4773577354497901
  0.0556690435630332  0.3640642807558357  0.4731932957712365
  0.8126889225073295  0.5779261704639372  0.4654285908646411
 
  0.00000000E+00  0.00000000E+00  0.00000000E+00
  0.00000000E+00  0.00000000E+00  0.00000000E+00
  0.00000000E+00  0.00000000E+00  0.00000000E+00
  0.00000000E+00  0.00000000E+00  0.00000000E+00
  0.00000000E+00  0.00000000E+00  0.00000000E+00
  0.00000000E+00  0.00000000E+00  0.00000000E+00
  0.00000000E+00  0.00000000E+00  0.00000000E+00
  0.00000000E+00  0.00000000E+00  0.00000000E+00
  0.00000000E+00  0.00000000E+00  0.00000000E+00
  0.00000000E+00  0.00000000E+00  0.00000000E+00
  0.00000000E+00  0.00000000E+00  0.00000000E+00
  0.00000000E+00  0.00000000E+00  0.00000000E+00
  0.00000000E+00  0.00000000E+00  0.00000000E+00
  0.00000000E+00  0.00000000E+00  0.00000000E+00
  0.00000000E+00  0.00000000E+00  0.00000000E+00
  0.00000000E+00  0.00000000E+00  0.00000000E+00
  0.00000000E+00  0.00000000E+00  0.00000000E+00
  0.00000000E+00  0.00000000E+00  0.00000000E+00
  0.00000000E+00  0.00000000E+00  0.00000000E+00
  0.00000000E+00  0.00000000E+00  0.00000000E+00
  0.00000000E+00  0.00000000E+00  0.00000000E+00
  0.00000000E+00  0.00000000E+00  0.00000000E+00
  0.00000000E+00  0.00000000E+00  0.00000000E+00
  0.00000000E+00  0.00000000E+00  0.00000000E+00
  0.00000000E+00  0.00000000E+00  0.00000000E+00
  0.00000000E+00  0.00000000E+00  0.00000000E+00
  0.00000000E+00  0.00000000E+00  0.00000000E+00
  0.00000000E+00  0.00000000E+00  0.00000000E+00
  0.00000000E+00  0.00000000E+00  0.00000000E+00
  0.00000000E+00  0.00000000E+00  0.00000000E+00
  0.00000000E+00  0.00000000E+00  0.00000000E+00
  0.00000000E+00  0.00000000E+00  0.00000000E+00
  0.00000000E+00  0.00000000E+00  0.00000000E+00
  0.00000000E+00  0.00000000E+00  0.00000000E+00
  0.00000000E+00  0.00000000E+00  0.00000000E+00
  0.00000000E+00  0.00000000E+00  0.00000000E+00
  0.00000000E+00  0.00000000E+00  0.00000000E+00
  0.00000000E+00  0.00000000E+00  0.00000000E+00
  0.00000000E+00  0.00000000E+00  0.00000000E+00
  0.00000000E+00  0.00000000E+00  0.00000000E+00
  0.00000000E+00  0.00000000E+00  0.00000000E+00
  0.00000000E+00  0.00000000E+00  0.00000000E+00
  0.00000000E+00  0.00000000E+00  0.00000000E+00
  0.00000000E+00  0.00000000E+00  0.00000000E+00
  0.00000000E+00  0.00000000E+00  0.00000000E+00
  0.00000000E+00  0.00000000E+00  0.00000000E+00
  0.00000000E+00  0.00000000E+00  0.00000000E+00
  0.00000000E+00  0.00000000E+00  0.00000000E+00
  0.00000000E+00  0.00000000E+00  0.00000000E+00
  0.00000000E+00  0.00000000E+00  0.00000000E+00
  0.00000000E+00  0.00000000E+00  0.00000000E+00
  0.00000000E+00  0.00000000E+00  0.00000000E+00
  0.00000000E+00  0.00000000E+00  0.00000000E+00
  0.00000000E+00  0.00000000E+00  0.00000000E+00
  0.00000000E+00  0.00000000E+00  0.00000000E+00
  0.00000000E+00  0.00000000E+00  0.00000000E+00
  0.00000000E+00  0.00000000E+00  0.00000000E+00
  0.00000000E+00  0.00000000E+00  0.00000000E+00
  0.00000000E+00  0.00000000E+00  0.00000000E+00
  0.00000000E+00  0.00000000E+00  0.00000000E+00
  0.00000000E+00  0.00000000E+00  0.00000000E+00
  0.00000000E+00  0.00000000E+00  0.00000000E+00
  0.00000000E+00  0.00000000E+00  0.00000000E+00
  0.00000000E+00  0.00000000E+00  0.00000000E+00
  0.00000000E+00  0.00000000E+00  0.00000000E+00
  0.00000000E+00  0.00000000E+00  0.00000000E+00
  0.00000000E+00  0.00000000E+00  0.00000000E+00
  0.00000000E+00  0.00000000E+00  0.00000000E+00
  0.00000000E+00  0.00000000E+00  0.00000000E+00
  0.00000000E+00  0.00000000E+00  0.00000000E+00
  0.00000000E+00  0.00000000E+00  0.00000000E+00
  0.00000000E+00  0.00000000E+00  0.00000000E+00
  0.00000000E+00  0.00000000E+00  0.00000000E+00
  0.00000000E+00  0.00000000E+00  0.00000000E+00
  0.00000000E+00  0.00000000E+00  0.00000000E+00
  0.00000000E+00  0.00000000E+00  0.00000000E+00
  0.00000000E+00  0.00000000E+00  0.00000000E+00
  0.00000000E+00  0.00000000E+00  0.00000000E+00
  0.00000000E+00  0.00000000E+00  0.00000000E+00
  0.00000000E+00  0.00000000E+00  0.00000000E+00
  0.00000000E+00  0.00000000E+00  0.00000000E+00
  0.00000000E+00  0.00000000E+00  0.00000000E+00
  0.00000000E+00  0.00000000E+00  0.00000000E+00
  0.00000000E+00  0.00000000E+00  0.00000000E+00
  0.00000000E+00  0.00000000E+00  0.00000000E+00
  0.00000000E+00  0.00000000E+00  0.00000000E+00
  0.00000000E+00  0.00000000E+00  0.00000000E+00
  0.00000000E+00  0.00000000E+00  0.00000000E+00
  0.00000000E+00  0.00000000E+00  0.00000000E+00
  0.00000000E+00  0.00000000E+00  0.00000000E+00
  0.00000000E+00  0.00000000E+00  0.00000000E+00
  0.00000000E+00  0.00000000E+00  0.00000000E+00
  0.00000000E+00  0.00000000E+00  0.00000000E+00
  0.00000000E+00  0.00000000E+00  0.00000000E+00
  0.00000000E+00  0.00000000E+00  0.00000000E+00
  0.00000000E+00  0.00000000E+00  0.00000000E+00
  0.00000000E+00  0.00000000E+00  0.00000000E+00
  0.00000000E+00  0.00000000E+00  0.00000000E+00
  0.00000000E+00  0.00000000E+00  0.00000000E+00
  0.00000000E+00  0.00000000E+00  0.00000000E+00
  0.00000000E+00  0.00000000E+00  0.00000000E+00
  0.00000000E+00  0.00000000E+00  0.00000000E+00
  0.00000000E+00  0.00000000E+00  0.00000000E+00
  0.00000000E+00  0.00000000E+00  0.00000000E+00
  0.00000000E+00  0.00000000E+00  0.00000000E+00
  0.00000000E+00  0.00000000E+00  0.00000000E+00
  0.00000000E+00  0.00000000E+00  0.00000000E+00
  0.00000000E+00  0.00000000E+00  0.00000000E+00
  0.00000000E+00  0.00000000E+00  0.00000000E+00
  0.00000000E+00  0.00000000E+00  0.00000000E+00
  0.00000000E+00  0.00000000E+00  0.00000000E+00
  0.00000000E+00  0.00000000E+00  0.00000000E+00
  0.00000000E+00  0.00000000E+00  0.00000000E+00
  0.00000000E+00  0.00000000E+00  0.00000000E+00
  0.00000000E+00  0.00000000E+00  0.00000000E+00
  0.00000000E+00  0.00000000E+00  0.00000000E+00
  0.00000000E+00  0.00000000E+00  0.00000000E+00
  0.00000000E+00  0.00000000E+00  0.00000000E+00
  0.00000000E+00  0.00000000E+00  0.00000000E+00
  0.00000000E+00  0.00000000E+00  0.00000000E+00
  0.00000000E+00  0.00000000E+00  0.00000000E+00
  0.00000000E+00  0.00000000E+00  0.00000000E+00
  0.00000000E+00  0.00000000E+00  0.00000000E+00
  0.00000000E+00  0.00000000E+00  0.00000000E+00
  0.00000000E+00  0.00000000E+00  0.00000000E+00
  0.00000000E+00  0.00000000E+00  0.00000000E+00
  0.00000000E+00  0.00000000E+00  0.00000000E+00
  0.00000000E+00  0.00000000E+00  0.00000000E+00
  0.00000000E+00  0.00000000E+00  0.00000000E+00
  0.00000000E+00  0.00000000E+00  0.00000000E+00
  0.00000000E+00  0.00000000E+00  0.00000000E+00
  0.00000000E+00  0.00000000E+00  0.00000000E+00
  0.00000000E+00  0.00000000E+00  0.00000000E+00
  0.00000000E+00  0.00000000E+00  0.00000000E+00
  0.00000000E+00  0.00000000E+00  0.00000000E+00
  0.00000000E+00  0.00000000E+00  0.00000000E+00
  0.00000000E+00  0.00000000E+00  0.00000000E+00
  0.00000000E+00  0.00000000E+00  0.00000000E+00
  0.00000000E+00  0.00000000E+00  0.00000000E+00
  0.00000000E+00  0.00000000E+00  0.00000000E+00
  0.00000000E+00  0.00000000E+00  0.00000000E+00
  0.00000000E+00  0.00000000E+00  0.00000000E+00
  0.00000000E+00  0.00000000E+00  0.00000000E+00
  0.00000000E+00  0.00000000E+00  0.00000000E+00
  0.00000000E+00  0.00000000E+00  0.00000000E+00
  0.00000000E+00  0.00000000E+00  0.00000000E+00
  0.00000000E+00  0.00000000E+00  0.00000000E+00
  0.00000000E+00  0.00000000E+00  0.00000000E+00
  0.00000000E+00  0.00000000E+00  0.00000000E+00
  0.00000000E+00  0.00000000E+00  0.00000000E+00
  0.00000000E+00  0.00000000E+00  0.00000000E+00
  0.00000000E+00  0.00000000E+00  0.00000000E+00
  0.00000000E+00  0.00000000E+00  0.00000000E+00
  0.00000000E+00  0.00000000E+00  0.00000000E+00
  0.00000000E+00  0.00000000E+00  0.00000000E+00
  0.00000000E+00  0.00000000E+00  0.00000000E+00
  0.00000000E+00  0.00000000E+00  0.00000000E+00
  0.00000000E+00  0.00000000E+00  0.00000000E+00
  0.00000000E+00  0.00000000E+00  0.00000000E+00
  0.00000000E+00  0.00000000E+00  0.00000000E+00
  0.00000000E+00  0.00000000E+00  0.00000000E+00
  0.00000000E+00  0.00000000E+00  0.00000000E+00
  0.00000000E+00  0.00000000E+00  0.00000000E+00
  0.00000000E+00  0.00000000E+00  0.00000000E+00
  0.00000000E+00  0.00000000E+00  0.00000000E+00
  0.00000000E+00  0.00000000E+00  0.00000000E+00
  0.00000000E+00  0.00000000E+00  0.00000000E+00
  0.00000000E+00  0.00000000E+00  0.00000000E+00
  0.00000000E+00  0.00000000E+00  0.00000000E+00
  0.00000000E+00  0.00000000E+00  0.00000000E+00
  0.00000000E+00  0.00000000E+00  0.00000000E+00
  0.00000000E+00  0.00000000E+00  0.00000000E+00
  0.00000000E+00  0.00000000E+00  0.00000000E+00
  0.00000000E+00  0.00000000E+00  0.00000000E+00
  0.00000000E+00  0.00000000E+00  0.00000000E+00
  0.00000000E+00  0.00000000E+00  0.00000000E+00
  0.00000000E+00  0.00000000E+00  0.00000000E+00
  0.00000000E+00  0.00000000E+00  0.00000000E+00
  0.00000000E+00  0.00000000E+00  0.00000000E+00
  0.00000000E+00  0.00000000E+00  0.00000000E+00
  0.00000000E+00  0.00000000E+00  0.00000000E+00
  0.00000000E+00  0.00000000E+00  0.00000000E+00
  0.00000000E+00  0.00000000E+00  0.00000000E+00
  0.00000000E+00  0.00000000E+00  0.00000000E+00
  0.00000000E+00  0.00000000E+00  0.00000000E+00
  0.00000000E+00  0.00000000E+00  0.00000000E+00
  0.00000000E+00  0.00000000E+00  0.00000000E+00
  0.00000000E+00  0.00000000E+00  0.00000000E+00
  0.00000000E+00  0.00000000E+00  0.00000000E+00
  0.00000000E+00  0.00000000E+00  0.00000000E+00
  0.00000000E+00  0.00000000E+00  0.00000000E+00
  0.00000000E+00  0.00000000E+00  0.00000000E+00
  0.00000000E+00  0.00000000E+00  0.00000000E+00
  0.00000000E+00  0.00000000E+00  0.00000000E+00
  0.00000000E+00  0.00000000E+00  0.00000000E+00
  0.00000000E+00  0.00000000E+00  0.00000000E+00
  0.00000000E+00  0.00000000E+00  0.00000000E+00
  0.00000000E+00  0.00000000E+00  0.00000000E+00
  0.00000000E+00  0.00000000E+00  0.00000000E+00
  0.00000000E+00  0.00000000E+00  0.00000000E+00
  0.00000000E+00  0.00000000E+00  0.00000000E+00
  0.00000000E+00  0.00000000E+00  0.00000000E+00
  0.00000000E+00  0.00000000E+00  0.00000000E+00
  0.00000000E+00  0.00000000E+00  0.00000000E+00
  0.00000000E+00  0.00000000E+00  0.00000000E+00
  0.00000000E+00  0.00000000E+00  0.00000000E+00
  0.00000000E+00  0.00000000E+00  0.00000000E+00
  0.00000000E+00  0.00000000E+00  0.00000000E+00
  0.00000000E+00  0.00000000E+00  0.00000000E+00
  0.00000000E+00  0.00000000E+00  0.00000000E+00
  0.00000000E+00  0.00000000E+00  0.00000000E+00
  0.00000000E+00  0.00000000E+00  0.00000000E+00
  0.00000000E+00  0.00000000E+00  0.00000000E+00
  0.00000000E+00  0.00000000E+00  0.00000000E+00
  0.00000000E+00  0.00000000E+00  0.00000000E+00
  0.00000000E+00  0.00000000E+00  0.00000000E+00
  0.00000000E+00  0.00000000E+00  0.00000000E+00
  0.00000000E+00  0.00000000E+00  0.00000000E+00
  0.00000000E+00  0.00000000E+00  0.00000000E+00
  0.00000000E+00  0.00000000E+00  0.00000000E+00
  0.00000000E+00  0.00000000E+00  0.00000000E+00
  0.00000000E+00  0.00000000E+00  0.00000000E+00
  0.00000000E+00  0.00000000E+00  0.00000000E+00
  0.00000000E+00  0.00000000E+00  0.00000000E+00
  0.00000000E+00  0.00000000E+00  0.00000000E+00
  0.00000000E+00  0.00000000E+00  0.00000000E+00
  0.00000000E+00  0.00000000E+00  0.00000000E+00
  0.00000000E+00  0.00000000E+00  0.00000000E+00
  0.00000000E+00  0.00000000E+00  0.00000000E+00
  0.00000000E+00  0.00000000E+00  0.00000000E+00
  0.00000000E+00  0.00000000E+00  0.00000000E+00
  0.00000000E+00  0.00000000E+00  0.00000000E+00
  0.00000000E+00  0.00000000E+00  0.00000000E+00
  0.00000000E+00  0.00000000E+00  0.00000000E+00
  0.00000000E+00  0.00000000E+00  0.00000000E+00
  0.00000000E+00  0.00000000E+00  0.00000000E+00
  0.00000000E+00  0.00000000E+00  0.00000000E+00
  0.00000000E+00  0.00000000E+00  0.00000000E+00
  0.00000000E+00  0.00000000E+00  0.00000000E+00
