Cs48 Pb48 I142                          
   1.00000000000000     
    -8.7892764467019617    0.0000000000000000    0.0000000000000000
     0.0000000000000000    8.9064446674109856  -12.5262538221686679
     0.0000000000000000  -70.5965865239674883  -49.6557573128531899
   Cs   Pb   I 
    48    48   142
Direct
  0.0186966773285280  0.1597077575140489  0.1454954369508398
  0.0118173493666678  0.1840770070814660  0.3988199463244759
  0.0035279662795233  0.5091883730131266  0.0592870671891263
  0.0158882095432505  0.5004825985914833  0.3147801788510843
  0.0183907783844018  0.8265214688440403  0.2319459889542948
  0.4729031722453204  0.9942148572538474  0.0633925270953735
  0.5141938551905471  0.0270002296695591  0.3085293281923991
  0.5136915620854468  0.3562266939011460  0.2235010353778399
  0.5079449998567557  0.6782095139199297  0.1411210729293779
  0.5135205069566326  0.7068332546213111  0.3921156957384913
  0.9934202754810146  0.1926287313351819  0.2656011020279097
  0.9930117432505413  0.5190312088504941  0.1821986640085274
  0.9968959552137325  0.5505504010025554  0.4342246435111228
  0.9907437163062472  0.8433282568912203  0.0987860853185177
 -0.0014373905642041  0.8656638379703698  0.3506003450466543
  0.4973881253196329  0.3247111564893939  0.1035355531099486
  0.4920517417776435  0.3422560789094714  0.3570422550600528
  0.4946663880655576  0.6617588650550142  0.2734222585835962
  0.4936461591193410  0.9935983551514175  0.1899585082681414
  0.4890187772337822  0.0277874698057715  0.4403916374849067
  0.0084412207760964  0.2434587368128078  0.6500949304041699
  0.9915920763863791  0.2645132387626745  0.9015998159190504
  0.0042365760414125  0.5627062801675355  0.5656513211036469
  0.0122564622963715  0.5901504791034858  0.8175638178951206
  0.0137300193988007  0.9247402738360682  0.7341906823513152
  0.5104828798504404  0.0839270086441890  0.5595083472326137
  0.5183323937464235  0.1213833815840268  0.8114488067037972
  0.5119994698354121  0.4435104842491752  0.7267835535194059
  0.5089928750877261  0.7741000405738072  0.6431565908862691
  0.5233933093307144  0.7922404017920455  0.8951600635674454
  0.9942897622354203  0.2871911326153194  0.7677708127264140
  0.9873973600809285  0.6070215496358380  0.6850926657326435
  0.9772149314795321  0.6116438078032290  0.9358511526624471
  0.9895968713666505  0.9301174904092222  0.6016991034017669
  0.9929058126706372  0.9555753666376741  0.8554431512541010
  0.4892530599184052  0.4061959622442162  0.6075966717640260
  0.4920935032437173  0.4277983174521420  0.8594892525071924
  0.4949486045639396  0.7591112582341701  0.7759813315261371
  0.4935786284487901  0.0815228066610230  0.6921105658605599
  0.4989328738372808  0.1178957732346404  0.9389957052907569
  0.5127880056958195  0.3948492404885578  0.4763535087104208
  0.4889989808122654  0.7185965993549405  0.5239465550321859
  0.0089123004249922  0.8729463847634408  0.4823850562221660
  0.9943753701920909  0.2397894832842269  0.5178683165571145
  0.9653537174121080  0.9325881788912500  0.9765566922305329
  0.4777845316572593  0.3991221219825378  0.9785838025728054
  0.4871945638190705  0.6721961746425789  0.0191126863931269
  0.9817845886811829  0.1751114189703303  0.0225063460044355
  0.5053220612854427  0.3401797887264507  0.1647241730307960
  0.5031936690923922  0.3683097427195507  0.4165525467750079
  0.4972933225450882  0.6734247572935527  0.0801077376305439
  0.5052532977905966  0.6861045080139689  0.3325834922685258
  0.5056706525562551  0.0099572145035365  0.2490686685622771
  0.0035603641712290  0.5040021980063711  0.1222458352949957
  0.0039685206716419  0.5260480181103273  0.3745031512682400
  0.9875322744432827  0.8326589927840731  0.0353890008803697
  0.0065465341407908  0.8469884855375563  0.2908903509384584
  0.0047308220764809  0.1737803696055996  0.2067723369735036
  0.0011292398294994  0.2119100992406499  0.4582893984127953
  0.5054085459949670  0.0026760284465988  0.1239492717662159
  0.5037866638969386  0.0262451194533921  0.3746687661833284
  0.4917391988052525  0.3419849390822419  0.0380080778790437
  0.5064603783257962  0.3459139752193964  0.2907527407336380
  0.5046799659699343  0.6745926146124375  0.2072455334648072
  0.5012693670871105  0.7116927729432809  0.4582257590384238
  0.9961056633870045  0.1716583610727654  0.0806850898710838
  0.0043489583858978  0.1853591006494068  0.3326653405950309
  0.0034951709073174  0.5096540305128814  0.2489231127623937
  0.0031041004903103  0.8382367053636609  0.1653401515799167
  0.0016404748022835  0.8677798532663690  0.4165575064449691
  0.4989936465132605  0.4280727879953490  0.6671625912516378
  0.4879746394204757  0.4446020643850826  0.9197281351785545
  0.4980815511155675  0.7449173742903895  0.5838276754799695
  0.5017896401972828  0.7739755426090509  0.8350050931301906
  0.5064040107301649  0.1017266185035901  0.7517170403218616
  0.9974681762215060  0.5866181104800660  0.6255219060809915
  0.0039666391540045  0.6113802507657289  0.8770225830007483
 -0.0000257555278772  0.9008880173879950  0.5418989814899282
  0.0047882986144409  0.9383876958792811  0.7937364066683709
  0.0044198009637081  0.2639292533451346  0.7090763181715865
  0.9859870711964399  0.3032031771063258  0.9671483225178080
  0.4986193690828719  0.0878306350241715  0.6255864946178615
  0.4976777764268090  0.1077796897446204  0.8772305717862083
  0.4990053325329065  0.4013547964619957  0.5418171567523036
  0.5048075124317560  0.4384715776431534  0.7929529300483594
  0.5014969626862533  0.7641451437015440  0.7096928999895407
  0.4814973825335786  0.7397741291453023  0.9611209640372470
  0.9978897492591666  0.2450359453254990  0.5836311900401623
  0.0045043630018666  0.2745043773889331  0.8349860981456345
  0.0034024283249113  0.6031748041101965  0.7511290557473899
  0.0012114326396614  0.9249099395098302  0.6676436241821019
  0.0039687958141826  0.9450092264579829  0.9215187908558634
  0.0006868559675703  0.5569279144867444  0.4999071871098980
  0.5014159840272518  0.0563271374437779  0.4999432716541206
  0.9869512683217360  0.4836355926502090  0.9908696699331037
  0.4774083491564557  0.0427665040611964  0.9973315883107381
  0.2166864026188566  0.3931899971796634  0.1447522525315786
  0.2029228021777319  0.4124628280787918  0.3975778121543955
  0.2279794537907621  0.7540608015745690  0.0599550474359296
  0.2056457158850635  0.7283864386665437  0.3132785607932692
  0.2097269726433196  0.0551931634380003  0.2289544939167890
  0.7268445238403902  0.7865543940145406  0.0599321333275244
  0.7064718049541096  0.7999683763209576  0.3096411487863271
  0.7086939706905936  0.1287257034092760  0.2267392129801978
  0.7126335649450829  0.4554370078976493  0.1425210040195422
  0.7030316007445072  0.4779368236043706  0.3930056652699880
  0.7555029717778380  0.2734226503098963  0.0599008230552409
  0.8064647484537540  0.2607993761391589  0.3046740389973168
  0.8011450075303753  0.5870707128322580  0.2215552224682178
  0.7991689461122184  0.9148637622791044  0.1380367918524141
  0.8055758292281511  0.9440976932262077  0.3886983834467176
  0.2581112174585987  0.2819817293862651  0.0639126569478699
  0.3056287490131339  0.2674538296943061  0.3180075894272242
  0.3010488693694238  0.5975604030614736  0.2344383543243514
  0.2975549030496818  0.9295417581529951  0.1509036528334683
  0.3039002154619135  0.9467017632861777  0.4018897230718474
  0.8043439820707614 -0.0359716958860509  0.2684751886547379
  0.7998775693241534  0.2884402773731168  0.1841632745360547
  0.8066995232214218  0.3243448357761390  0.4348006912025303
  0.7846343163644642  0.6085968461862030  0.0993902935208673
  0.8056355253222437  0.6386724242462846  0.3512327335762861
  0.2842172239887084  0.5503500967767428  0.1002457711443011
  0.3044172460850350  0.5726589175549640  0.3556636626874010
  0.3048710668971766  0.8898665172307912  0.2711726743032155
  0.2969916627977850  0.2221578287572675  0.1864597147806790
  0.3042415288801545  0.2594541350132096  0.4401759910191270
  0.2292810965094884  0.0866228163296609  0.1046402143768087
  0.2042762453839420  0.1104630096872854  0.3602444422446454
  0.2081008516923411  0.4293270825552944  0.2757368079307336
  0.2083131648037113  0.7623118717881993  0.1925841075307182
  0.1950173828650426  0.7890939627186192  0.4443163672684901
  0.7254751762368189  0.0745152237117004  0.0975443798425525
  0.7049669249120541  0.1022100141078986  0.3470338210248471
  0.7051152176297911  0.4209748757281260  0.2626663592390887
  0.7081810064813849  0.7504386156103238  0.1797540182835870
  0.6954346176853283  0.7908742139325632  0.4305410849789820
  0.9539155756053543  0.3267088040709601  0.1048546773322564
  0.9514861365983281  0.3538509234270283  0.3538726875757646
  0.9476045539710267  0.6748704647363779  0.2706150509040899
  0.9435010276156416  0.0067433491213636  0.1859330522002058
  0.9590696634424896  0.0378582910173014  0.4378277622998878
  0.4435451440779147  0.1759469440231550  0.2702720352879311
  0.4479849829053013  0.5105593166289359  0.1851318372018572
  0.4581500414997797  0.5423469340860632  0.4366948423840363
  0.4492928658612976  0.8290753668922568  0.1039269656271157
  0.4550789759682858  0.8577111913088755  0.3531205016739650
  0.0200763678309165  0.0136081990900893  0.0575911052480152
  0.0612770594777978  0.0135024477954366  0.3123385626234172
  0.0626260677465234  0.3457581175187555  0.2267651606207239
  0.0568126248249625  0.6763466097476137  0.1426095275309993
  0.0505111374678635  0.6973957681506415  0.3953979080113351
  0.5608033035098716  0.1753559290216126  0.1429524973048529
  0.5506964739355669  0.1918611266100440  0.3969526781832621
  0.5259151032193029  0.5209337506449367  0.0552331732997690
  0.5581333439133380  0.5124613648222101  0.3124919665741809
  0.5672697665081968  0.8399544469995903  0.2285902772221489
  0.1952209855478080  0.4731752617602788  0.6488315528952355
  0.2103469933785112  0.4858806319996058  0.8977805358826030
  0.1958648263898169  0.7901489491656780  0.5655018874995987
  0.2031474960200480  0.8167700831884908  0.8157891925481920
  0.2141794900211321  0.1507377789760116  0.7315373585118669
  0.6966783685143242  0.8529047614760246  0.5599610699833785
  0.7081961256918564  0.8910745153989451  0.8132613005810118
  0.7116200388695094  0.2153224488711334  0.7291008380190354
  0.6966373963740148  0.5461431678360590  0.6447204692732057
  0.7177982321087203  0.5427285641995775  0.8972530671868514
  0.8043837046699550  0.3239494132596583  0.5559470870494894
  0.8018312156528051  0.3464155579584800  0.8070388976853149
  0.8036863162577211  0.6827447343146094  0.7240006326231534
  0.7991190509637395  0.0053554590936194  0.6404487943329651
  0.7749005598357575  0.0155895828545562  0.8951810467067055
  0.3023025828487404  0.3218413182436210  0.5692058290136425
  0.3005950296984065  0.3613676027129744  0.8204027248046963
  0.3052149795642674  0.6876724421740946  0.7375229581643151
  0.2976584795812728  0.0125729002105972  0.6533132185075269
  0.2765408871619709  0.0257396088688377  0.9020739795129576
  0.8023848381889613  0.0600532307966775  0.7718999736664786
  0.7942534691760690  0.3758127050002844  0.6866110344413052
  0.7525135423659949  0.3783970949430255  0.9424768061275646
  0.8000621480060709  0.7009669432400673  0.6024531900068665
  0.7953832883622235  0.7266987735993463  0.8552914641750864
  0.2993576952191232  0.6339780640821338  0.6071970802650685
  0.3014981464508858  0.6591887640640628  0.8580982911388598
  0.3012432425256190 -0.0118983386160111  0.7744032109895980
  0.2984123211380456  0.3087706414442393  0.6893354547816996
  0.2386272206728831  0.3560233802134009  0.9422147050822377
  0.1981216105907598  0.1708103588396287  0.6114163315636123
  0.2079291393299881  0.2011069022187800  0.8628789302682476
  0.2075794316630564  0.5254782839802220  0.7785578425939403
  0.2028142899207776  0.8489533179241739  0.6953114445986198
  0.2644646073419674  0.8889411644325598  0.9467747987077341
  0.6960709731929470  0.1641813664223992  0.5979443769551892
  0.7142849026980849  0.1874239227373769  0.8512208633678213
  0.7051486366878943  0.5158062569022210  0.7655349999439593
  0.7026618122507374  0.8392038366095885  0.6820440440747492
  0.7383168070735370  0.8494012613296968  0.9405995682026979
  0.9490273758297563  0.4151512619988373  0.6046939665052115
  0.9431753929418315  0.4416747008673066  0.8554475559036533
  0.9471555175106293  0.7717277189608740  0.7721453334197051
  0.9470380206040158  0.0904509808332070  0.6893840407869095
  0.9655183379429617  0.1142456643905761  0.9396537220887128
  0.4442993917110092  0.2740928105759410  0.7714386661297049
  0.4442631950319887  0.5954443737509585  0.6887370232485910
  0.4265356836745212  0.6419060994649805  0.9314240690177088
  0.4504282297377581  0.9197893227517242  0.6038625392012320
  0.4479971158183326  0.9454718835433850  0.8553107864350687
  0.0410899335604852  0.0749709260066816  0.5622157392612770
  0.0676838480194718  0.1001229797419177  0.8157546845281415
  0.0569547186179162  0.4379217344893284  0.7289080046192865
  0.0518658592075802  0.7594624818921931  0.6457118301829622
  0.0497598163775330  0.7722820627672838  0.8985978903954356
  0.5532350130870605  0.2594220251095640  0.6460717065256966
  0.5363836793010912  0.2721093958549980  0.9002508725327970
  0.5377619718769588  0.5711353592453354  0.5634732479266101
  0.5618197005997729  0.6048690250615727  0.8145716544545230
  0.5583073618435717  0.9323675779238891  0.7310585070094194
  0.8080212716610147  0.6359709301251558  0.4721700287442566
  0.3083596209736537  0.6298459364167325  0.4856512778566975
  0.1934124869831339  0.4760308281518942  0.5274833414025758
  0.9615005865688042  0.7264728483857797  0.5215568186477865
  0.6957908798511531  0.4837584585169229  0.5146144064359232
  0.6944627461087874  0.1641209868362997  0.4756763718949450
  0.3048373543996274  0.9491877070967349  0.5241158039391570
  0.4623824567180352  0.2327763958518337  0.5199052664766244
  0.8055204913550955  0.0118207158641257  0.5180554786789899
  0.1952166969944411  0.1005199804713310  0.4820046902415870
  0.5414246699154859  0.8801795860973286  0.4801126390299427
  0.0413093561767425  0.3862836573553971  0.4785818140027382
  0.2285337758063753  0.1625836679809751  0.9820223257283472
  0.2280014004130555  0.4144975512853031  0.0160071712954062
  0.9660928558886090  0.6548455605876716  0.0206371042323121
  0.7445824157704297  0.4018758828277330  0.0136404624850512
  0.7273844699769914  0.1668081054539117  0.9822050424102539
  0.2433135251725828  0.8996618892520258  0.0108105344218982
  0.4600778403669856  0.1386989122822683  0.0274938641678828
  0.7281307834306731  0.9166498456416302  0.0134562562657445
  0.2283854519773081  0.6332630169226293  0.9778803775677212
  0.7337561581220046  0.6185805214060923  0.9759105723658646
 
  0.00000000E+00  0.00000000E+00  0.00000000E+00
  0.00000000E+00  0.00000000E+00  0.00000000E+00
  0.00000000E+00  0.00000000E+00  0.00000000E+00
  0.00000000E+00  0.00000000E+00  0.00000000E+00
  0.00000000E+00  0.00000000E+00  0.00000000E+00
  0.00000000E+00  0.00000000E+00  0.00000000E+00
  0.00000000E+00  0.00000000E+00  0.00000000E+00
  0.00000000E+00  0.00000000E+00  0.00000000E+00
  0.00000000E+00  0.00000000E+00  0.00000000E+00
  0.00000000E+00  0.00000000E+00  0.00000000E+00
  0.00000000E+00  0.00000000E+00  0.00000000E+00
  0.00000000E+00  0.00000000E+00  0.00000000E+00
  0.00000000E+00  0.00000000E+00  0.00000000E+00
  0.00000000E+00  0.00000000E+00  0.00000000E+00
  0.00000000E+00  0.00000000E+00  0.00000000E+00
  0.00000000E+00  0.00000000E+00  0.00000000E+00
  0.00000000E+00  0.00000000E+00  0.00000000E+00
  0.00000000E+00  0.00000000E+00  0.00000000E+00
  0.00000000E+00  0.00000000E+00  0.00000000E+00
  0.00000000E+00  0.00000000E+00  0.00000000E+00
  0.00000000E+00  0.00000000E+00  0.00000000E+00
  0.00000000E+00  0.00000000E+00  0.00000000E+00
  0.00000000E+00  0.00000000E+00  0.00000000E+00
  0.00000000E+00  0.00000000E+00  0.00000000E+00
  0.00000000E+00  0.00000000E+00  0.00000000E+00
  0.00000000E+00  0.00000000E+00  0.00000000E+00
  0.00000000E+00  0.00000000E+00  0.00000000E+00
  0.00000000E+00  0.00000000E+00  0.00000000E+00
  0.00000000E+00  0.00000000E+00  0.00000000E+00
  0.00000000E+00  0.00000000E+00  0.00000000E+00
  0.00000000E+00  0.00000000E+00  0.00000000E+00
  0.00000000E+00  0.00000000E+00  0.00000000E+00
  0.00000000E+00  0.00000000E+00  0.00000000E+00
  0.00000000E+00  0.00000000E+00  0.00000000E+00
  0.00000000E+00  0.00000000E+00  0.00000000E+00
  0.00000000E+00  0.00000000E+00  0.00000000E+00
  0.00000000E+00  0.00000000E+00  0.00000000E+00
  0.00000000E+00  0.00000000E+00  0.00000000E+00
  0.00000000E+00  0.00000000E+00  0.00000000E+00
  0.00000000E+00  0.00000000E+00  0.00000000E+00
  0.00000000E+00  0.00000000E+00  0.00000000E+00
  0.00000000E+00  0.00000000E+00  0.00000000E+00
  0.00000000E+00  0.00000000E+00  0.00000000E+00
  0.00000000E+00  0.00000000E+00  0.00000000E+00
  0.00000000E+00  0.00000000E+00  0.00000000E+00
  0.00000000E+00  0.00000000E+00  0.00000000E+00
  0.00000000E+00  0.00000000E+00  0.00000000E+00
  0.00000000E+00  0.00000000E+00  0.00000000E+00
  0.00000000E+00  0.00000000E+00  0.00000000E+00
  0.00000000E+00  0.00000000E+00  0.00000000E+00
  0.00000000E+00  0.00000000E+00  0.00000000E+00
  0.00000000E+00  0.00000000E+00  0.00000000E+00
  0.00000000E+00  0.00000000E+00  0.00000000E+00
  0.00000000E+00  0.00000000E+00  0.00000000E+00
  0.00000000E+00  0.00000000E+00  0.00000000E+00
  0.00000000E+00  0.00000000E+00  0.00000000E+00
  0.00000000E+00  0.00000000E+00  0.00000000E+00
  0.00000000E+00  0.00000000E+00  0.00000000E+00
  0.00000000E+00  0.00000000E+00  0.00000000E+00
  0.00000000E+00  0.00000000E+00  0.00000000E+00
  0.00000000E+00  0.00000000E+00  0.00000000E+00
  0.00000000E+00  0.00000000E+00  0.00000000E+00
  0.00000000E+00  0.00000000E+00  0.00000000E+00
  0.00000000E+00  0.00000000E+00  0.00000000E+00
  0.00000000E+00  0.00000000E+00  0.00000000E+00
  0.00000000E+00  0.00000000E+00  0.00000000E+00
  0.00000000E+00  0.00000000E+00  0.00000000E+00
  0.00000000E+00  0.00000000E+00  0.00000000E+00
  0.00000000E+00  0.00000000E+00  0.00000000E+00
  0.00000000E+00  0.00000000E+00  0.00000000E+00
  0.00000000E+00  0.00000000E+00  0.00000000E+00
  0.00000000E+00  0.00000000E+00  0.00000000E+00
  0.00000000E+00  0.00000000E+00  0.00000000E+00
  0.00000000E+00  0.00000000E+00  0.00000000E+00
  0.00000000E+00  0.00000000E+00  0.00000000E+00
  0.00000000E+00  0.00000000E+00  0.00000000E+00
  0.00000000E+00  0.00000000E+00  0.00000000E+00
  0.00000000E+00  0.00000000E+00  0.00000000E+00
  0.00000000E+00  0.00000000E+00  0.00000000E+00
  0.00000000E+00  0.00000000E+00  0.00000000E+00
  0.00000000E+00  0.00000000E+00  0.00000000E+00
  0.00000000E+00  0.00000000E+00  0.00000000E+00
  0.00000000E+00  0.00000000E+00  0.00000000E+00
  0.00000000E+00  0.00000000E+00  0.00000000E+00
  0.00000000E+00  0.00000000E+00  0.00000000E+00
  0.00000000E+00  0.00000000E+00  0.00000000E+00
  0.00000000E+00  0.00000000E+00  0.00000000E+00
  0.00000000E+00  0.00000000E+00  0.00000000E+00
  0.00000000E+00  0.00000000E+00  0.00000000E+00
  0.00000000E+00  0.00000000E+00  0.00000000E+00
  0.00000000E+00  0.00000000E+00  0.00000000E+00
  0.00000000E+00  0.00000000E+00  0.00000000E+00
  0.00000000E+00  0.00000000E+00  0.00000000E+00
  0.00000000E+00  0.00000000E+00  0.00000000E+00
  0.00000000E+00  0.00000000E+00  0.00000000E+00
  0.00000000E+00  0.00000000E+00  0.00000000E+00
  0.00000000E+00  0.00000000E+00  0.00000000E+00
  0.00000000E+00  0.00000000E+00  0.00000000E+00
  0.00000000E+00  0.00000000E+00  0.00000000E+00
  0.00000000E+00  0.00000000E+00  0.00000000E+00
  0.00000000E+00  0.00000000E+00  0.00000000E+00
  0.00000000E+00  0.00000000E+00  0.00000000E+00
  0.00000000E+00  0.00000000E+00  0.00000000E+00
  0.00000000E+00  0.00000000E+00  0.00000000E+00
  0.00000000E+00  0.00000000E+00  0.00000000E+00
  0.00000000E+00  0.00000000E+00  0.00000000E+00
  0.00000000E+00  0.00000000E+00  0.00000000E+00
  0.00000000E+00  0.00000000E+00  0.00000000E+00
  0.00000000E+00  0.00000000E+00  0.00000000E+00
  0.00000000E+00  0.00000000E+00  0.00000000E+00
  0.00000000E+00  0.00000000E+00  0.00000000E+00
  0.00000000E+00  0.00000000E+00  0.00000000E+00
  0.00000000E+00  0.00000000E+00  0.00000000E+00
  0.00000000E+00  0.00000000E+00  0.00000000E+00
  0.00000000E+00  0.00000000E+00  0.00000000E+00
  0.00000000E+00  0.00000000E+00  0.00000000E+00
  0.00000000E+00  0.00000000E+00  0.00000000E+00
  0.00000000E+00  0.00000000E+00  0.00000000E+00
  0.00000000E+00  0.00000000E+00  0.00000000E+00
  0.00000000E+00  0.00000000E+00  0.00000000E+00
  0.00000000E+00  0.00000000E+00  0.00000000E+00
  0.00000000E+00  0.00000000E+00  0.00000000E+00
  0.00000000E+00  0.00000000E+00  0.00000000E+00
  0.00000000E+00  0.00000000E+00  0.00000000E+00
  0.00000000E+00  0.00000000E+00  0.00000000E+00
  0.00000000E+00  0.00000000E+00  0.00000000E+00
  0.00000000E+00  0.00000000E+00  0.00000000E+00
  0.00000000E+00  0.00000000E+00  0.00000000E+00
  0.00000000E+00  0.00000000E+00  0.00000000E+00
  0.00000000E+00  0.00000000E+00  0.00000000E+00
  0.00000000E+00  0.00000000E+00  0.00000000E+00
  0.00000000E+00  0.00000000E+00  0.00000000E+00
  0.00000000E+00  0.00000000E+00  0.00000000E+00
  0.00000000E+00  0.00000000E+00  0.00000000E+00
  0.00000000E+00  0.00000000E+00  0.00000000E+00
  0.00000000E+00  0.00000000E+00  0.00000000E+00
  0.00000000E+00  0.00000000E+00  0.00000000E+00
  0.00000000E+00  0.00000000E+00  0.00000000E+00
  0.00000000E+00  0.00000000E+00  0.00000000E+00
  0.00000000E+00  0.00000000E+00  0.00000000E+00
  0.00000000E+00  0.00000000E+00  0.00000000E+00
  0.00000000E+00  0.00000000E+00  0.00000000E+00
  0.00000000E+00  0.00000000E+00  0.00000000E+00
  0.00000000E+00  0.00000000E+00  0.00000000E+00
  0.00000000E+00  0.00000000E+00  0.00000000E+00
  0.00000000E+00  0.00000000E+00  0.00000000E+00
  0.00000000E+00  0.00000000E+00  0.00000000E+00
  0.00000000E+00  0.00000000E+00  0.00000000E+00
  0.00000000E+00  0.00000000E+00  0.00000000E+00
  0.00000000E+00  0.00000000E+00  0.00000000E+00
  0.00000000E+00  0.00000000E+00  0.00000000E+00
  0.00000000E+00  0.00000000E+00  0.00000000E+00
  0.00000000E+00  0.00000000E+00  0.00000000E+00
  0.00000000E+00  0.00000000E+00  0.00000000E+00
  0.00000000E+00  0.00000000E+00  0.00000000E+00
  0.00000000E+00  0.00000000E+00  0.00000000E+00
  0.00000000E+00  0.00000000E+00  0.00000000E+00
  0.00000000E+00  0.00000000E+00  0.00000000E+00
  0.00000000E+00  0.00000000E+00  0.00000000E+00
  0.00000000E+00  0.00000000E+00  0.00000000E+00
  0.00000000E+00  0.00000000E+00  0.00000000E+00
  0.00000000E+00  0.00000000E+00  0.00000000E+00
  0.00000000E+00  0.00000000E+00  0.00000000E+00
  0.00000000E+00  0.00000000E+00  0.00000000E+00
  0.00000000E+00  0.00000000E+00  0.00000000E+00
  0.00000000E+00  0.00000000E+00  0.00000000E+00
  0.00000000E+00  0.00000000E+00  0.00000000E+00
  0.00000000E+00  0.00000000E+00  0.00000000E+00
  0.00000000E+00  0.00000000E+00  0.00000000E+00
  0.00000000E+00  0.00000000E+00  0.00000000E+00
  0.00000000E+00  0.00000000E+00  0.00000000E+00
  0.00000000E+00  0.00000000E+00  0.00000000E+00
  0.00000000E+00  0.00000000E+00  0.00000000E+00
  0.00000000E+00  0.00000000E+00  0.00000000E+00
  0.00000000E+00  0.00000000E+00  0.00000000E+00
  0.00000000E+00  0.00000000E+00  0.00000000E+00
  0.00000000E+00  0.00000000E+00  0.00000000E+00
  0.00000000E+00  0.00000000E+00  0.00000000E+00
  0.00000000E+00  0.00000000E+00  0.00000000E+00
  0.00000000E+00  0.00000000E+00  0.00000000E+00
  0.00000000E+00  0.00000000E+00  0.00000000E+00
  0.00000000E+00  0.00000000E+00  0.00000000E+00
  0.00000000E+00  0.00000000E+00  0.00000000E+00
  0.00000000E+00  0.00000000E+00  0.00000000E+00
  0.00000000E+00  0.00000000E+00  0.00000000E+00
  0.00000000E+00  0.00000000E+00  0.00000000E+00
  0.00000000E+00  0.00000000E+00  0.00000000E+00
  0.00000000E+00  0.00000000E+00  0.00000000E+00
  0.00000000E+00  0.00000000E+00  0.00000000E+00
  0.00000000E+00  0.00000000E+00  0.00000000E+00
  0.00000000E+00  0.00000000E+00  0.00000000E+00
  0.00000000E+00  0.00000000E+00  0.00000000E+00
  0.00000000E+00  0.00000000E+00  0.00000000E+00
  0.00000000E+00  0.00000000E+00  0.00000000E+00
  0.00000000E+00  0.00000000E+00  0.00000000E+00
  0.00000000E+00  0.00000000E+00  0.00000000E+00
  0.00000000E+00  0.00000000E+00  0.00000000E+00
  0.00000000E+00  0.00000000E+00  0.00000000E+00
  0.00000000E+00  0.00000000E+00  0.00000000E+00
  0.00000000E+00  0.00000000E+00  0.00000000E+00
  0.00000000E+00  0.00000000E+00  0.00000000E+00
  0.00000000E+00  0.00000000E+00  0.00000000E+00
  0.00000000E+00  0.00000000E+00  0.00000000E+00
  0.00000000E+00  0.00000000E+00  0.00000000E+00
  0.00000000E+00  0.00000000E+00  0.00000000E+00
  0.00000000E+00  0.00000000E+00  0.00000000E+00
  0.00000000E+00  0.00000000E+00  0.00000000E+00
  0.00000000E+00  0.00000000E+00  0.00000000E+00
  0.00000000E+00  0.00000000E+00  0.00000000E+00
  0.00000000E+00  0.00000000E+00  0.00000000E+00
  0.00000000E+00  0.00000000E+00  0.00000000E+00
  0.00000000E+00  0.00000000E+00  0.00000000E+00
  0.00000000E+00  0.00000000E+00  0.00000000E+00
  0.00000000E+00  0.00000000E+00  0.00000000E+00
  0.00000000E+00  0.00000000E+00  0.00000000E+00
  0.00000000E+00  0.00000000E+00  0.00000000E+00
  0.00000000E+00  0.00000000E+00  0.00000000E+00
  0.00000000E+00  0.00000000E+00  0.00000000E+00
  0.00000000E+00  0.00000000E+00  0.00000000E+00
  0.00000000E+00  0.00000000E+00  0.00000000E+00
  0.00000000E+00  0.00000000E+00  0.00000000E+00
  0.00000000E+00  0.00000000E+00  0.00000000E+00
  0.00000000E+00  0.00000000E+00  0.00000000E+00
  0.00000000E+00  0.00000000E+00  0.00000000E+00
  0.00000000E+00  0.00000000E+00  0.00000000E+00
  0.00000000E+00  0.00000000E+00  0.00000000E+00
  0.00000000E+00  0.00000000E+00  0.00000000E+00
  0.00000000E+00  0.00000000E+00  0.00000000E+00
  0.00000000E+00  0.00000000E+00  0.00000000E+00
  0.00000000E+00  0.00000000E+00  0.00000000E+00
  0.00000000E+00  0.00000000E+00  0.00000000E+00
  0.00000000E+00  0.00000000E+00  0.00000000E+00
  0.00000000E+00  0.00000000E+00  0.00000000E+00
  0.00000000E+00  0.00000000E+00  0.00000000E+00
  0.00000000E+00  0.00000000E+00  0.00000000E+00
  0.00000000E+00  0.00000000E+00  0.00000000E+00
  0.00000000E+00  0.00000000E+00  0.00000000E+00
  0.00000000E+00  0.00000000E+00  0.00000000E+00
