CONTCAR-no-fix                          
   1.00000000000000     
     8.6938190886689846    0.0048754593588113   -0.0043695659874182
    -0.0120714786818114   15.4662434517060170   -0.0775857481739532
     0.0435357308378899   -0.7958298728790048   87.3218381016373542
   Cs   Pb   I 
    48    48   144
Direct
  0.0105430000154737  0.1559068080894796  0.6498985555851131
  0.0153761024546679  0.1838417146970520  0.8993728626530876
  0.9949526827462905  0.4769976927575611  0.5659066926469838
  0.0128152547633284  0.5040471115429993  0.8163406398494999
  0.0136038117894398  0.8258294936927892  0.7325689499358936
  0.5276574946310646  0.0054814778880111  0.5600109019987223
  0.5139359326789305  0.0317554558924493  0.8081889691400462
  0.5156579810818320  0.3557875651321267  0.7252490107387691
  0.5125257823226274  0.6871291985781546  0.6420469881252278
  0.5132034332040624  0.7140176887143647  0.8917403070325799
  0.9889625435899515  0.1939418876269771  0.7669588403016941
  0.9869516914133680  0.5211399749689110  0.6832200187993285
  0.9881872164380424  0.5542359897787751  0.9338615167101098
  0.9855891505848555  0.8442371245262162  0.6023488775862990
  0.9881713386281443  0.8731046401991587  0.8499612414215764
  0.4850429747061547  0.3201661228036368  0.6070756915355789
  0.4880491583346498  0.3442527821246747  0.8575348735354085
  0.4886828385103779  0.6635228059351781  0.7747203176513375
  0.4899405486808845  0.9879812043687777  0.6914204222400367
  0.4892486314149758  0.0260092029270426  0.9410130645262531
  0.0131978358207859  0.2401940463145267  0.1497328441310382
  0.0086573842732882  0.2631766745329425  0.3996949146649801
  0.0143935139679146  0.5572196754477611  0.0661200753300973
  0.0100450300465654  0.5953428066624286  0.3159306533147300
  0.0139535348283481  0.9197633378412210  0.2329549958281234
  0.5147068934529010  0.0871341114057115  0.0587976626244960
  0.5130212470375506  0.1235567902714085  0.3084480642099825
  0.5140873732694006  0.4495739328277624  0.2252814063134396
  0.5140158112302542  0.7676040784531512  0.1420833551950662
  0.5081667967412888  0.7998181947017670  0.3918663314874340
  0.9882548926682247  0.2881338827376882  0.2665795240555594
  0.9875280943245064  0.6076989390651426  0.1837657824814259
  0.9731484423037169  0.6333366243167827  0.4339706611345011
  0.9869046623855613  0.9283763707316072  0.1005492127152495
  0.9826097326010031  0.9632940241074499  0.3501528105600172
  0.4895455272185635  0.3980963805048711  0.1081990703715238
  0.4809497826273877  0.4313786459265237  0.3579607278117472
  0.4874888628986737  0.7564119040151787  0.2749759278150527
  0.4895022607452060  0.0812452670198742  0.1913130699198523
  0.4904332897372838  0.1052728943527574  0.4386468252325689
  0.5126137438938141  0.3952950972544341  0.9755479233242396
  0.4896959994212438  0.7172018783961773  0.0242490268217521
  0.0135159179535215  0.8714174750765732  0.9827114336846964
  0.9883846377437653  0.2411895920397238  0.0170512114194551
  0.0218868979897218  0.9478645609858239  0.4786521813703665
  0.4893079912835111  0.4573063806638683  0.4738159544470599
  0.3975241530853610  0.6238894240893534  0.5299196617226095
  0.0939817441560077  0.1261224713635374  0.5289838444765134
  0.4996429573288256  0.3371535190161131  0.6666684305338058
  0.5011506798450038  0.3701211263398955  0.9164472797985319
  0.4942860317108038  0.6589080469645624  0.5835599646298258
  0.5002029984041347  0.6881415924961434  0.8331014556059716
  0.5006856629376351  0.0106603392529144  0.7496716823343457
  0.9967025497206446  0.4999475857856544  0.6251628437097512
  0.0003024291502134  0.5285411486677816  0.8748988567003619
  0.9897597459704819  0.8094386235980729  0.5409865577894539
  0.0017932406725815  0.8493042518729995  0.7912470243750401
  0.0029199952073457  0.1739987945303823  0.7082102706454040
  0.0019791905594494  0.2128384383389410  0.9580881807903943
  0.4958165105362087  0.0017351614297520  0.6249790903387062
  0.5011859602250599  0.0286860424675008  0.8746713099610314
  0.4998497837072413  0.3137575755142266  0.5395556548100102
  0.5003919803302255  0.3493942667818884  0.7913236090327492
  0.5014574885006657  0.6729471880837725  0.7083229074463687
  0.5002322987788154  0.7122614810232710  0.9582386964501700
  0.0005571765645595  0.1616784730548383  0.5834939370176516
  0.0007835694302724  0.1885123741765546  0.8330296326443611
  0.0022044403226881  0.5112247548894513  0.7497854267132747
  0.0003146240789205  0.8376014025728339  0.6667451000456929
  0.0011002307050357  0.8695138483158866  0.9165059877474859
  0.5011947464664208  0.4238954461481672  0.1666913026560079
  0.4941206259796853  0.4478108407532895  0.4159278284908766
  0.5008959938217452  0.7418011598022879  0.0832628708818528
  0.4981999943741583  0.7758341112686350  0.3332183758968718
  0.5022219130269633  0.1013579269048405  0.2499889024996772
  0.0019243470216498  0.5836949181052857  0.1248751009701216
  0.9937497627765945  0.6118365306558328  0.3745995840834851
  0.0002656189955886  0.8995290797118415  0.0417430848953687
 -0.0003617800504320  0.9398886153368381  0.2915679162405945
  0.0006082573142665  0.2627373180413857  0.2084399452336930
  0.9890963303359798  0.2837639106598066  0.4582238083112667
  0.5000049281155132  0.0830058036474942  0.1250345281624467
  0.4950482962880801  0.1140290279852517  0.3739791430310881
  0.5008595574557839  0.4000470165987454  0.0414818782046618
  0.4995186588227400  0.4394776789365812  0.2913227266863156
  0.5004691218463265  0.7633638412620517  0.2081880990279645
  0.5002648232551707  0.7788262588382597  0.4584613191971440
  0.0016922855871803  0.2424953972079273  0.0832699772501849
  0.9993937069306569  0.2781342291476020  0.3327015437593834
  0.0017091735667038  0.6028068131767352  0.2497752533016102
  0.0014882327751839  0.9237694794249767  0.1667087546856091
  0.9959424377201784  0.9459980861683353  0.4159393318351717
  0.0010149084257951  0.5563437880717333  0.9998989116178199
  0.5010923764933486  0.0558517263027772  0.9999082145631804
  0.9267659100830160  0.3216219345254632  0.5019747066787871
  0.5779275277379992  0.8119611744595893  0.5027855183607608
  0.1979698841917775  0.3854354070731983  0.6477870986917696
  0.1974097017549833  0.4139353699824380  0.8978503931210332
  0.1765748373454118  0.7057315518653592  0.5668691199529443
  0.1999274519277832  0.7327251885954680  0.8138735030242933
  0.2004614262859474  0.0544906253597464  0.7304937853371720
  0.6787627218656419  0.7724902668162505  0.5589853959335441
  0.7004118833612951  0.8017481029522671  0.8104011819584505
  0.7022675727111954  0.1263480693909525  0.7275025188636671
  0.6967057978317041  0.4564199731437315  0.6446129738095970
  0.6966928062893536  0.4856859369321153  0.8937818846633941
  0.8083737880476568  0.2487143099678808  0.5559466674833387
  0.8014028286838177  0.2646047449694768  0.8057214230499071
  0.8025530196494132  0.5857591846609493  0.7222682471190203
  0.7938041648788398  0.9197158060019369  0.6404871338476009
  0.8056342568441811  0.9473209268218955  0.8889947169549858
  0.3052779389964726  0.2341156351547873  0.5677323045464738
  0.3013786267344174  0.2728010606022404  0.8187999030940962
  0.3020737612715290  0.5975216392025048  0.7357788559539558
  0.2975503329315835  0.9257412516269308  0.6524665167471849
  0.3059904084699083  0.9504193886581102  0.9022920063871868
  0.8020716148715936  0.9645511490611935  0.7688786669676104
  0.8019321316579049  0.2904352476611055  0.6858863022534931
  0.8057055921488497  0.3246983654289777  0.9349616126287583
  0.7982314380249242  0.6146038856334067  0.6022449107665696
  0.8023433040237042  0.6441290752680230  0.8522650310435637
  0.3021453392524729  0.5496618262490017  0.6073936528594117
  0.3021431430773373  0.5740890448400419  0.8560885976404907
  0.3025576983712673  0.8919780644463684  0.7720721645387584
  0.3033731430777752  0.2160572523034247  0.6888499312578061
  0.3054617268671641  0.2553936878132012  0.9394801031570204
  0.1948003469010596  0.0874066281390384  0.6111202988507886
  0.1987532286627932  0.1115283006598188  0.8604602962185632
  0.1993851066442416  0.4356019804546147  0.7774655887860701
  0.2037938054916568  0.7593282160141551  0.6936699937988888
  0.1951718530062088  0.7906483758994231  0.9440707548548900
  0.6979375052789040  0.0847403529905061  0.5985486860616194
  0.6976637579745155  0.1039836479223366  0.8470526239344933
  0.7006352015488067  0.4257644882351760  0.7640939751877656
  0.7021229406339063  0.7497537104805736  0.6811346992485015
  0.6952388478411871  0.7886195530553878  0.9306433543085031
  0.9503666938259192  0.3333083169362616  0.6042775437612992
  0.9489934287359462  0.3560074408093277  0.8547825270795230
  0.9457273026748356  0.6782638053990879  0.7710491047708827
  0.9465105994470580  0.0029889856634947  0.6883081639323272
  0.9565405971531574  0.0381553294461299  0.9381349104272960
  0.4468420773165339  0.1815616615712173  0.7702317071509354
  0.4437865478099963  0.5050569480862415  0.6877204256996003
  0.4531894134352913  0.5405719900948297  0.9376466543893449
  0.4531175262722320  0.8363890521165939  0.6035344778194838
  0.4481910449154663  0.8605593252107364  0.8534781154807768
  0.0420684292522025  0.9866449371581868  0.5647549612932783
  0.0536960442653544  0.0211754000968316  0.8117283621082818
  0.0585686286393602  0.3421210836005265  0.7291766218288078
  0.0509407366498630  0.6742070779309539  0.6449260359699659
  0.0505736268448266  0.6997950592780514  0.8956350407676151
  0.5535293750383761  0.1729412137562716  0.6452620878938082
  0.5512488974632386  0.1983388049348157  0.8960129371741614
  0.5243878228162336  0.4852548748449243  0.5645792314099104
  0.5525989761632405  0.5151298386915579  0.8132734053472209
  0.5569823265530438  0.8394520571627870  0.7296688392372811
  0.1993706309360318  0.4696741147258373  0.1479229364093912
  0.1892843035349130  0.4929981548380223  0.3969994220644196
  0.1948632421762836  0.7873396657084997  0.0651700594894339
  0.1985089383710591  0.8227842289667011  0.3138946601058261
  0.2002812636679081  0.1491341702912468  0.2312434856853718
  0.6955359655605676  0.8573179773818336  0.0604689118651292
  0.6999615350099019  0.8934386424390260  0.3110268507370875
  0.6989449100821015  0.2207962189499198  0.2278002507821829
  0.7014199060761930  0.5381306720705009  0.1441282961836910
  0.6915769996187188  0.5703814028693318  0.3940694351285676
  0.8066206310082372  0.3208576560651391  0.0558920479646409
  0.8018056659033350  0.3537983095898368  0.3053224500937887
  0.8031708650925079  0.6808959877871347  0.2226614066989226
  0.8030894912691866  0.0015619931271713  0.1395504013787002
  0.7871740002399871  0.0248125261240923  0.3893467593757771
  0.3069013102203569  0.3239473322740112  0.0694393436279731
  0.3010742119481233  0.3627415541470006  0.3188298015367386
  0.3049810996045897  0.6870899177322705  0.2359991511552517
  0.3033729244628853  0.0080160990437963  0.1528218930657407
  0.2868674973281201  0.0364986629624049  0.4007234332096841
  0.8027544560342047  0.0593935733363343  0.2694254104619509
  0.8019985540661857  0.3778739759122265  0.1858585942856436
  0.7938357648291861  0.4013970151987126  0.4348407173182878
  0.8051453290004266  0.6984816051517830  0.1021331482920122
  0.7977497115819676  0.7356244955659985  0.3529321007146027
  0.3059462483719549  0.6259827985861867  0.1061813171622325
  0.2967573856093014  0.6613871364374312  0.3558576586194038
  0.3020875039909512  0.9860640529747394  0.2726403592475229
  0.3018157056257205  0.3103206682445848  0.1895856239630255
  0.2934515745846524  0.3319917677866033  0.4384509964813945
  0.1963254013814062  0.1645835046922718  0.1110115556591007
  0.1957056253254794  0.2036969410036076  0.3605431858092679
  0.1990169162041713  0.5257610831091940  0.2773129817667615
  0.1981491439383623  0.8473608741464616  0.1943199429121808
  0.2120305513826222  0.8704964547077977  0.4417014254886234
  0.6974447320493146  0.1613269004238637  0.0977707383672803
  0.6984904846301802  0.1934374752009290  0.3473921572876615
  0.6992065934085924  0.5192927946238036  0.2643580899169403
  0.6983137347526300  0.8398318681262010  0.1808911186260995
  0.7023133159297801  0.8625868963728351  0.4315102840991403
  0.9515002376293473  0.4112401290000059  0.1047367737409142
  0.9354117898702055  0.4476549656105508  0.3532298978629833
  0.9457071714395764  0.7714813027840842  0.2708804427807440
  0.9491982237207566  0.0910676316986861  0.1882843049383243
  0.9526446007627589  0.1108164038635800  0.4384033262036944
  0.4449050287846040  0.2729231649292541  0.2703377846279903
  0.4479712296058843  0.5962469124883530  0.1869417340885833
  0.4373492140865529  0.6131224295911132  0.4375386299735629
  0.4510899102507450  0.9135513533878568  0.1039910480040769
  0.4376300666668647  0.9488559977603946  0.3529416544872180
  0.0479333201178818  0.0738103080863715  0.0620028939620093
  0.0549961535124314  0.1096633579373495  0.3122261849328241
  0.0539389780890682  0.4359506447930908  0.2284927239864597
  0.0523497239218533  0.7557868893091213  0.1453885993830552
  0.0532845087907835  0.7775274010862856  0.3959691817365357
  0.5516274831272245  0.2517708790760243  0.1464903032233122
  0.5531729515220202  0.2775075173917676  0.3959824561456231
  0.5501468081513540  0.5718600885523675  0.0623501331178215
  0.5528222298703609  0.6049210750911393  0.3133129315451338
  0.5547529819031765  0.9327887593251496  0.2292702162622653
  0.8073216798951439  0.6356958312643578  0.9725636238976298
  0.3067127410823370  0.6361452526171473  0.9860670935144802
  0.1937688454374253  0.4766886497118366  0.0274995755012259
  0.9562444057772036  0.7256060163457070  0.0215457039219761
  0.6942309349577647  0.4768722102645638  0.0139566313985589
  0.6974976446340450  0.1655031664674186  0.9764431463063318
  0.3049085543618515  0.9465420821563812  0.0236224774767295
  0.4566356504664569  0.2304965231856787  0.0200956281406149
  0.8060715279991877  0.0116956187841149  0.0183842907649597
  0.1975483416670623  0.1008484401613737  0.9814541473851652
  0.5455646948722821  0.8820876420509478  0.9798253872917979
  0.0463991325963395  0.3870680923857568  0.9785272686511413
  0.1932938073070275  0.1982022262734690  0.4842094408340958
  0.1775262776282472  0.3919852505814108  0.5260324146051870
  0.9266957329009284  0.6518532014998060  0.5214944368555977
  0.6625611126141283  0.4375964581086477  0.5151255332092604
  0.6982099315023859  0.2279725243072753  0.4772415961354186
  0.3049619764274802  0.8846002151916078  0.5238119576679660
  0.5245529291839307  0.1511130196907383  0.5201284412834679
  0.8100914743207365  0.9411739343334729  0.5190676495332528
  0.2996333771549188  0.7008618451783056  0.4857122236615078
  0.7917254866005582  0.7133905426506677  0.4761970337621598
  0.0057034832013714  0.4612140115304933  0.4793970052957372
  0.5227759145307033  0.9554929100125847  0.4799131283007726
 
  0.00000000E+00  0.00000000E+00  0.00000000E+00
  0.00000000E+00  0.00000000E+00  0.00000000E+00
  0.00000000E+00  0.00000000E+00  0.00000000E+00
  0.00000000E+00  0.00000000E+00  0.00000000E+00
  0.00000000E+00  0.00000000E+00  0.00000000E+00
  0.00000000E+00  0.00000000E+00  0.00000000E+00
  0.00000000E+00  0.00000000E+00  0.00000000E+00
  0.00000000E+00  0.00000000E+00  0.00000000E+00
  0.00000000E+00  0.00000000E+00  0.00000000E+00
  0.00000000E+00  0.00000000E+00  0.00000000E+00
  0.00000000E+00  0.00000000E+00  0.00000000E+00
  0.00000000E+00  0.00000000E+00  0.00000000E+00
  0.00000000E+00  0.00000000E+00  0.00000000E+00
  0.00000000E+00  0.00000000E+00  0.00000000E+00
  0.00000000E+00  0.00000000E+00  0.00000000E+00
  0.00000000E+00  0.00000000E+00  0.00000000E+00
  0.00000000E+00  0.00000000E+00  0.00000000E+00
  0.00000000E+00  0.00000000E+00  0.00000000E+00
  0.00000000E+00  0.00000000E+00  0.00000000E+00
  0.00000000E+00  0.00000000E+00  0.00000000E+00
  0.00000000E+00  0.00000000E+00  0.00000000E+00
  0.00000000E+00  0.00000000E+00  0.00000000E+00
  0.00000000E+00  0.00000000E+00  0.00000000E+00
  0.00000000E+00  0.00000000E+00  0.00000000E+00
  0.00000000E+00  0.00000000E+00  0.00000000E+00
  0.00000000E+00  0.00000000E+00  0.00000000E+00
  0.00000000E+00  0.00000000E+00  0.00000000E+00
  0.00000000E+00  0.00000000E+00  0.00000000E+00
  0.00000000E+00  0.00000000E+00  0.00000000E+00
  0.00000000E+00  0.00000000E+00  0.00000000E+00
  0.00000000E+00  0.00000000E+00  0.00000000E+00
  0.00000000E+00  0.00000000E+00  0.00000000E+00
  0.00000000E+00  0.00000000E+00  0.00000000E+00
  0.00000000E+00  0.00000000E+00  0.00000000E+00
  0.00000000E+00  0.00000000E+00  0.00000000E+00
  0.00000000E+00  0.00000000E+00  0.00000000E+00
  0.00000000E+00  0.00000000E+00  0.00000000E+00
  0.00000000E+00  0.00000000E+00  0.00000000E+00
  0.00000000E+00  0.00000000E+00  0.00000000E+00
  0.00000000E+00  0.00000000E+00  0.00000000E+00
  0.00000000E+00  0.00000000E+00  0.00000000E+00
  0.00000000E+00  0.00000000E+00  0.00000000E+00
  0.00000000E+00  0.00000000E+00  0.00000000E+00
  0.00000000E+00  0.00000000E+00  0.00000000E+00
  0.00000000E+00  0.00000000E+00  0.00000000E+00
  0.00000000E+00  0.00000000E+00  0.00000000E+00
  0.00000000E+00  0.00000000E+00  0.00000000E+00
  0.00000000E+00  0.00000000E+00  0.00000000E+00
  0.00000000E+00  0.00000000E+00  0.00000000E+00
  0.00000000E+00  0.00000000E+00  0.00000000E+00
  0.00000000E+00  0.00000000E+00  0.00000000E+00
  0.00000000E+00  0.00000000E+00  0.00000000E+00
  0.00000000E+00  0.00000000E+00  0.00000000E+00
  0.00000000E+00  0.00000000E+00  0.00000000E+00
  0.00000000E+00  0.00000000E+00  0.00000000E+00
  0.00000000E+00  0.00000000E+00  0.00000000E+00
  0.00000000E+00  0.00000000E+00  0.00000000E+00
  0.00000000E+00  0.00000000E+00  0.00000000E+00
  0.00000000E+00  0.00000000E+00  0.00000000E+00
  0.00000000E+00  0.00000000E+00  0.00000000E+00
  0.00000000E+00  0.00000000E+00  0.00000000E+00
  0.00000000E+00  0.00000000E+00  0.00000000E+00
  0.00000000E+00  0.00000000E+00  0.00000000E+00
  0.00000000E+00  0.00000000E+00  0.00000000E+00
  0.00000000E+00  0.00000000E+00  0.00000000E+00
  0.00000000E+00  0.00000000E+00  0.00000000E+00
  0.00000000E+00  0.00000000E+00  0.00000000E+00
  0.00000000E+00  0.00000000E+00  0.00000000E+00
  0.00000000E+00  0.00000000E+00  0.00000000E+00
  0.00000000E+00  0.00000000E+00  0.00000000E+00
  0.00000000E+00  0.00000000E+00  0.00000000E+00
  0.00000000E+00  0.00000000E+00  0.00000000E+00
  0.00000000E+00  0.00000000E+00  0.00000000E+00
  0.00000000E+00  0.00000000E+00  0.00000000E+00
  0.00000000E+00  0.00000000E+00  0.00000000E+00
  0.00000000E+00  0.00000000E+00  0.00000000E+00
  0.00000000E+00  0.00000000E+00  0.00000000E+00
  0.00000000E+00  0.00000000E+00  0.00000000E+00
  0.00000000E+00  0.00000000E+00  0.00000000E+00
  0.00000000E+00  0.00000000E+00  0.00000000E+00
  0.00000000E+00  0.00000000E+00  0.00000000E+00
  0.00000000E+00  0.00000000E+00  0.00000000E+00
  0.00000000E+00  0.00000000E+00  0.00000000E+00
  0.00000000E+00  0.00000000E+00  0.00000000E+00
  0.00000000E+00  0.00000000E+00  0.00000000E+00
  0.00000000E+00  0.00000000E+00  0.00000000E+00
  0.00000000E+00  0.00000000E+00  0.00000000E+00
  0.00000000E+00  0.00000000E+00  0.00000000E+00
  0.00000000E+00  0.00000000E+00  0.00000000E+00
  0.00000000E+00  0.00000000E+00  0.00000000E+00
  0.00000000E+00  0.00000000E+00  0.00000000E+00
  0.00000000E+00  0.00000000E+00  0.00000000E+00
  0.00000000E+00  0.00000000E+00  0.00000000E+00
  0.00000000E+00  0.00000000E+00  0.00000000E+00
  0.00000000E+00  0.00000000E+00  0.00000000E+00
  0.00000000E+00  0.00000000E+00  0.00000000E+00
  0.00000000E+00  0.00000000E+00  0.00000000E+00
  0.00000000E+00  0.00000000E+00  0.00000000E+00
  0.00000000E+00  0.00000000E+00  0.00000000E+00
  0.00000000E+00  0.00000000E+00  0.00000000E+00
  0.00000000E+00  0.00000000E+00  0.00000000E+00
  0.00000000E+00  0.00000000E+00  0.00000000E+00
  0.00000000E+00  0.00000000E+00  0.00000000E+00
  0.00000000E+00  0.00000000E+00  0.00000000E+00
  0.00000000E+00  0.00000000E+00  0.00000000E+00
  0.00000000E+00  0.00000000E+00  0.00000000E+00
  0.00000000E+00  0.00000000E+00  0.00000000E+00
  0.00000000E+00  0.00000000E+00  0.00000000E+00
  0.00000000E+00  0.00000000E+00  0.00000000E+00
  0.00000000E+00  0.00000000E+00  0.00000000E+00
  0.00000000E+00  0.00000000E+00  0.00000000E+00
  0.00000000E+00  0.00000000E+00  0.00000000E+00
  0.00000000E+00  0.00000000E+00  0.00000000E+00
  0.00000000E+00  0.00000000E+00  0.00000000E+00
  0.00000000E+00  0.00000000E+00  0.00000000E+00
  0.00000000E+00  0.00000000E+00  0.00000000E+00
  0.00000000E+00  0.00000000E+00  0.00000000E+00
  0.00000000E+00  0.00000000E+00  0.00000000E+00
  0.00000000E+00  0.00000000E+00  0.00000000E+00
  0.00000000E+00  0.00000000E+00  0.00000000E+00
  0.00000000E+00  0.00000000E+00  0.00000000E+00
  0.00000000E+00  0.00000000E+00  0.00000000E+00
  0.00000000E+00  0.00000000E+00  0.00000000E+00
  0.00000000E+00  0.00000000E+00  0.00000000E+00
  0.00000000E+00  0.00000000E+00  0.00000000E+00
  0.00000000E+00  0.00000000E+00  0.00000000E+00
  0.00000000E+00  0.00000000E+00  0.00000000E+00
  0.00000000E+00  0.00000000E+00  0.00000000E+00
  0.00000000E+00  0.00000000E+00  0.00000000E+00
  0.00000000E+00  0.00000000E+00  0.00000000E+00
  0.00000000E+00  0.00000000E+00  0.00000000E+00
  0.00000000E+00  0.00000000E+00  0.00000000E+00
  0.00000000E+00  0.00000000E+00  0.00000000E+00
  0.00000000E+00  0.00000000E+00  0.00000000E+00
  0.00000000E+00  0.00000000E+00  0.00000000E+00
  0.00000000E+00  0.00000000E+00  0.00000000E+00
  0.00000000E+00  0.00000000E+00  0.00000000E+00
  0.00000000E+00  0.00000000E+00  0.00000000E+00
  0.00000000E+00  0.00000000E+00  0.00000000E+00
  0.00000000E+00  0.00000000E+00  0.00000000E+00
  0.00000000E+00  0.00000000E+00  0.00000000E+00
  0.00000000E+00  0.00000000E+00  0.00000000E+00
  0.00000000E+00  0.00000000E+00  0.00000000E+00
  0.00000000E+00  0.00000000E+00  0.00000000E+00
  0.00000000E+00  0.00000000E+00  0.00000000E+00
  0.00000000E+00  0.00000000E+00  0.00000000E+00
  0.00000000E+00  0.00000000E+00  0.00000000E+00
  0.00000000E+00  0.00000000E+00  0.00000000E+00
  0.00000000E+00  0.00000000E+00  0.00000000E+00
  0.00000000E+00  0.00000000E+00  0.00000000E+00
  0.00000000E+00  0.00000000E+00  0.00000000E+00
  0.00000000E+00  0.00000000E+00  0.00000000E+00
  0.00000000E+00  0.00000000E+00  0.00000000E+00
  0.00000000E+00  0.00000000E+00  0.00000000E+00
  0.00000000E+00  0.00000000E+00  0.00000000E+00
  0.00000000E+00  0.00000000E+00  0.00000000E+00
  0.00000000E+00  0.00000000E+00  0.00000000E+00
  0.00000000E+00  0.00000000E+00  0.00000000E+00
  0.00000000E+00  0.00000000E+00  0.00000000E+00
  0.00000000E+00  0.00000000E+00  0.00000000E+00
  0.00000000E+00  0.00000000E+00  0.00000000E+00
  0.00000000E+00  0.00000000E+00  0.00000000E+00
  0.00000000E+00  0.00000000E+00  0.00000000E+00
  0.00000000E+00  0.00000000E+00  0.00000000E+00
  0.00000000E+00  0.00000000E+00  0.00000000E+00
  0.00000000E+00  0.00000000E+00  0.00000000E+00
  0.00000000E+00  0.00000000E+00  0.00000000E+00
  0.00000000E+00  0.00000000E+00  0.00000000E+00
  0.00000000E+00  0.00000000E+00  0.00000000E+00
  0.00000000E+00  0.00000000E+00  0.00000000E+00
  0.00000000E+00  0.00000000E+00  0.00000000E+00
  0.00000000E+00  0.00000000E+00  0.00000000E+00
  0.00000000E+00  0.00000000E+00  0.00000000E+00
  0.00000000E+00  0.00000000E+00  0.00000000E+00
  0.00000000E+00  0.00000000E+00  0.00000000E+00
  0.00000000E+00  0.00000000E+00  0.00000000E+00
  0.00000000E+00  0.00000000E+00  0.00000000E+00
  0.00000000E+00  0.00000000E+00  0.00000000E+00
  0.00000000E+00  0.00000000E+00  0.00000000E+00
  0.00000000E+00  0.00000000E+00  0.00000000E+00
  0.00000000E+00  0.00000000E+00  0.00000000E+00
  0.00000000E+00  0.00000000E+00  0.00000000E+00
  0.00000000E+00  0.00000000E+00  0.00000000E+00
  0.00000000E+00  0.00000000E+00  0.00000000E+00
  0.00000000E+00  0.00000000E+00  0.00000000E+00
  0.00000000E+00  0.00000000E+00  0.00000000E+00
  0.00000000E+00  0.00000000E+00  0.00000000E+00
  0.00000000E+00  0.00000000E+00  0.00000000E+00
  0.00000000E+00  0.00000000E+00  0.00000000E+00
  0.00000000E+00  0.00000000E+00  0.00000000E+00
  0.00000000E+00  0.00000000E+00  0.00000000E+00
  0.00000000E+00  0.00000000E+00  0.00000000E+00
  0.00000000E+00  0.00000000E+00  0.00000000E+00
  0.00000000E+00  0.00000000E+00  0.00000000E+00
  0.00000000E+00  0.00000000E+00  0.00000000E+00
  0.00000000E+00  0.00000000E+00  0.00000000E+00
  0.00000000E+00  0.00000000E+00  0.00000000E+00
  0.00000000E+00  0.00000000E+00  0.00000000E+00
  0.00000000E+00  0.00000000E+00  0.00000000E+00
  0.00000000E+00  0.00000000E+00  0.00000000E+00
  0.00000000E+00  0.00000000E+00  0.00000000E+00
  0.00000000E+00  0.00000000E+00  0.00000000E+00
  0.00000000E+00  0.00000000E+00  0.00000000E+00
  0.00000000E+00  0.00000000E+00  0.00000000E+00
  0.00000000E+00  0.00000000E+00  0.00000000E+00
  0.00000000E+00  0.00000000E+00  0.00000000E+00
  0.00000000E+00  0.00000000E+00  0.00000000E+00
  0.00000000E+00  0.00000000E+00  0.00000000E+00
  0.00000000E+00  0.00000000E+00  0.00000000E+00
  0.00000000E+00  0.00000000E+00  0.00000000E+00
  0.00000000E+00  0.00000000E+00  0.00000000E+00
  0.00000000E+00  0.00000000E+00  0.00000000E+00
  0.00000000E+00  0.00000000E+00  0.00000000E+00
  0.00000000E+00  0.00000000E+00  0.00000000E+00
  0.00000000E+00  0.00000000E+00  0.00000000E+00
  0.00000000E+00  0.00000000E+00  0.00000000E+00
  0.00000000E+00  0.00000000E+00  0.00000000E+00
  0.00000000E+00  0.00000000E+00  0.00000000E+00
  0.00000000E+00  0.00000000E+00  0.00000000E+00
  0.00000000E+00  0.00000000E+00  0.00000000E+00
  0.00000000E+00  0.00000000E+00  0.00000000E+00
  0.00000000E+00  0.00000000E+00  0.00000000E+00
  0.00000000E+00  0.00000000E+00  0.00000000E+00
  0.00000000E+00  0.00000000E+00  0.00000000E+00
  0.00000000E+00  0.00000000E+00  0.00000000E+00
  0.00000000E+00  0.00000000E+00  0.00000000E+00
  0.00000000E+00  0.00000000E+00  0.00000000E+00
  0.00000000E+00  0.00000000E+00  0.00000000E+00
  0.00000000E+00  0.00000000E+00  0.00000000E+00
  0.00000000E+00  0.00000000E+00  0.00000000E+00
  0.00000000E+00  0.00000000E+00  0.00000000E+00
  0.00000000E+00  0.00000000E+00  0.00000000E+00
  0.00000000E+00  0.00000000E+00  0.00000000E+00
  0.00000000E+00  0.00000000E+00  0.00000000E+00
  0.00000000E+00  0.00000000E+00  0.00000000E+00
  0.00000000E+00  0.00000000E+00  0.00000000E+00
  0.00000000E+00  0.00000000E+00  0.00000000E+00
  0.00000000E+00  0.00000000E+00  0.00000000E+00
  0.00000000E+00  0.00000000E+00  0.00000000E+00
  0.00000000E+00  0.00000000E+00  0.00000000E+00
