type-I                                  
   1.00000000000000     
    36.9919675315094736    0.0000000000000000    0.0000000000000000
     0.0000000000000000   11.7758163230580859    0.0000000000000000
     0.0000000000000000    0.0000000000000000   13.7639085008272097
   I    Pb   Cs   C    N    H 
    72    24    11    12    24    60
Direct
  0.3451296229101816  0.0066611686594781  0.0616289013556765
  0.1760747060540533  0.5089427316639316  0.0482758624750279
  0.0723953768519436  0.3307219154464327  0.0081261553933840
  0.2400348359875716  0.8260014289949708  0.0000311054134774
  0.1367058397151006  0.0003889148326977  0.6171955438978431
  0.2966110570335297  0.5115051943172726  0.5617456327407980
  0.2360331295619937  0.2072616548611021  0.4753835324867091
  0.0756954946158179  0.6964314894835546  0.4890695878188125
  0.1196249109700783  0.0142323916462017  0.9311103514508020
  0.3017652407492136  0.5116037904450829  0.0568899836627752
  0.2389937520255415  0.1913051794074566  0.9994123819742775
  0.0738339647221759  0.6974755763570119  0.0248321095811804
  0.3383407943350021  0.0178268226956304  0.5561809189096446
  0.1759828270441531  0.5331212400902673  0.5201549489454954
  0.0768648517922716  0.3394278975994465  0.5056924408858877
  0.2395870337936237  0.8383233439213750  0.4984705769681773
  0.3240992648344350  0.2628418651220485  0.2622392936234821
  0.1613538753007851  0.7837115196592565  0.2507735349913266
  0.1669660824902024  0.3027827841103833  0.7569698995358171
  0.3224755610733924  0.7719208243989217  0.7653968875267742
  0.3179488658100560  0.2598954668308204  0.7730543995294931
  0.1619451878414414  0.7177714058682618  0.7784591650803009
  0.1563886127572005  0.2163780197145167  0.2373359401927416
  0.3217858936941054  0.7453485918200339  0.2736374246187026
  0.6765323220749263  0.9979067554572998  0.0552528219890079
  0.5047418955105187  0.5062253479122059  0.0700304324264131
  0.4059760572493620  0.3191029399533432  0.9870477342808756
  0.5729507886475399  0.7951563188416810  0.9396065646308142
  0.4529364905961886  0.0130116794521844  0.5556234894371886
  0.6196250324912252  0.5123982976562469  0.5282949639665424
  0.5715547107253011  0.1923084193747570  0.4883489912167698
  0.4048830926912152  0.6991020407914451  0.5002953018037902
  0.4689457531147050  0.0143663066652230  0.0285337567254947
  0.6436829807790755  0.4990777550530098  0.0397148521376974
  0.5723413247526156  0.1949355553936475  0.9875967374793229
  0.4057236539284595  0.6947907058964066  0.0025714341882054
  0.6822295364770655  0.0130030091160219  0.4858975743836450
  0.5054464097295119  0.5135361035047716  0.4731135158695464
  0.4032058511617200  0.3278698247820233  0.5005474824607981
  0.5719997115097145  0.8363361724291813  0.4865616662061861
  0.6524226065216000  0.2621117434555119  0.2628352671316160
  0.4781239751693001  0.7760268535078878  0.2638471610239669
  0.4847541901608869  0.2923848627613691  0.7396774449465033
  0.6662890858775626  0.7937376154830315  0.7375155875509125
  0.6430526365825632  0.2635056106636802  0.7413908296917151
  0.4735059956846021  0.7547238310885276  0.7562325906626193
  0.4768575419643952  0.2368392275807287  0.2661663257471948
  0.6525231299624900  0.7406730704193552  0.2652429194898657
 -0.0006229490043622  0.0155956330131893  0.0429141899810122
  0.8438490713263577  0.5012678834043987  0.0539096383852083
  0.7392469544841815  0.2936811460095747  0.9244238187988045
  0.9106639926875274  0.8033947589646221  0.9180594568380960
  0.7973899391104025  0.0136588521312469  0.5274127055268157
  0.9737750992509476  0.5199458427812669  0.5018302085952567
  0.9094365141099978  0.2029797901379065  0.4930063488812205
  0.7402590916407972  0.6928985736093032  0.4878296553114853
  0.8130068979844515  0.9961274736951280  0.0460789932778619
  0.9703332826313887  0.5157257144772849  0.0284576318944213
  0.9072357015266549  0.1976687845633455  0.9734634628141094
  0.7432489189129385  0.6923035466170691  0.9849009730193887
  0.0362900781619307  0.0185584960622006  0.4861106243225464
  0.8591051688794740  0.5142466944994603  0.5132361647202421
  0.7397335641229404  0.3326546080345797  0.4912468699957548
  0.9082246925293231  0.8438930932922966  0.4861612553995059
  0.0042953111517303  0.2771607645000910  0.2649939660409829
  0.8238087843700127  0.7585499712188598  0.2647334382214148
  0.8329037983289196  0.2657924063066661  0.7434666610156736
  0.0153532072298649  0.7957781849923448  0.7407024423844283
  0.9947311787751134  0.2953479561181872  0.7356947980992089
  0.8166615762320131  0.7621401502208792  0.7376972858075442
  0.8273289587616879  0.2457698014135400  0.2647447199559461
  0.9974609892938593  0.7577148971226090  0.2620165892054918
  0.1543065019497792  0.2477417283896115  0.0145772190056984
  0.3221740996633073  0.7627681839229935  0.9862204646758064
  0.3211352075135840  0.2594423545407629  0.9936515574069376
  0.1541824796611971  0.7808142393939222  0.9894955516812941
  0.1543107950449775  0.2405547803029866  0.5447785721971078
  0.3211846187723382  0.7575520102179553  0.4934618682995107
  0.3204918681154390  0.2658273377195725  0.4833833740692021
  0.1558103241489664  0.7839327726097832  0.4761651694688642
  0.4904204091694407  0.2718138012420163  0.9633320662411792
  0.6606833450025159  0.7564196750301561  0.9587606861896260
  0.6563101943143415  0.2459652767092876  0.9643107190695344
  0.4881141884657671  0.7573618260442551  0.9769730275546352
  0.4881480339496675  0.2478014628637948  0.4883633837870736
  0.6561011811839188  0.7479391105979695  0.4913220422173011
  0.6557119029625835  0.2674706413717772  0.4878839122965090
  0.4886901263719863  0.7762980794786222  0.4846588204200883
  0.8253450810129509  0.2524143723774904  0.9658676069913013
  0.9966099870886419  0.7691015648566081  0.9554671746940672
  0.9917425028489208  0.2721718860205147  0.9564279503718648
  0.8283155825884453  0.7450872763862798  0.9580595712496009
  0.8257040540653351  0.2606518376402247  0.4871363910567043
  0.9941609533285735  0.7795636320597064  0.4808563305542504
  0.9953647641701128  0.2542301767907804  0.4879857839713568
  0.8248419424487544  0.7559590643598361  0.4899718658739273
  0.2348063038401515  0.0103215956303112  0.7479525239850195
  0.3954370077326107  0.5101599539349766  0.7423941696629718
  0.2466308334352188  0.0064739535849345  0.2430560260647227
  0.4059903810479799  0.5061515047721448  0.2477072275237667
  0.2413211190179475  0.5178371763242444  0.8066236952652714
  0.0767521429346850  0.9982342750981049  0.2214034255618283
  0.2355917588035404  0.5010818618064155  0.2864469080145826
  0.3991847233792468  0.0230142078203659  0.7982762878390192
  0.3999364777542441  0.0053872248643574  0.2993476292216152
  0.0804431894564555  0.5183241835169915  0.7503758985855705
  0.0858918248187290  0.5062996592994585  0.2557509653183661
  0.5629477207876132  0.0559368684445324  0.7333700878132852
  0.7373891911297730  0.5549668652492238  0.7266751948757628
  0.5720894730510867  0.0516220088666551  0.2395637868434706
  0.7431002163371632  0.5489362432745037  0.2447225706013821
  0.5648746487080458  0.4885882762175141  0.7585763961867288
  0.5811537142008022  0.5034882928345562  0.2724082786037990
  0.9140389690682333  0.0626964260917839  0.7264058984785569
  0.9192487026682848  0.0337707274377334  0.2204842809474388
  0.7401321761242416 -0.0023330013598850  0.7500601881429531
  0.9161082666380350  0.5021952799827542  0.7436005041145962
  0.7555568057356319  0.0059421222888233  0.2758809474432162
  0.9287976122986211  0.5100614686300541  0.2678721724044989
  0.5932335086111064  0.9982077279918506  0.7361554619586340
  0.7679146522127573  0.4983827418020684  0.7263856112056244
  0.5302967405214865  0.0130776547228682  0.7406986901665888
  0.7048481683688473  0.5104764714088920  0.7285000217966404
  0.6026321968151469  0.0020606364796641  0.2622506007802601
  0.7746715012406391  0.5025383143754126  0.2613090587705688
  0.5399862495506503  0.0044092274941403  0.2417309015308512
  0.7117135889781969  0.4978884607962073  0.2517703708775311
  0.5484895591521626  0.5679827170363263  0.7082693578997137
  0.5722468176078602  0.4947348944636125  0.8518693866896967
  0.5646595648724029  0.4048884907477398  0.2734444501409565
  0.5655324412729319  0.6032960772959725  0.2673006277728966
  0.9471506741212481  0.0229990546673709  0.7327215902971562
  0.8844062036235955  0.0016228638955608  0.7227013938412747
  0.9449294747242912  0.0353533770027752  0.2860998867656379
  0.8884969161361242  0.9790273876405873  0.2302132684454439
  0.7284769233945708  0.0941042732242588  0.7139837485147138
  0.8999415277812437  0.4768668053741576  0.8258089756393141
  0.7473657947593875  0.9801326880556457  0.8423816220069940
  0.9350039204944708  0.5946561170910863  0.7281410671919493
  0.7382287259360031  0.9089251122643108  0.2798075391823298
  0.9137967488262041  0.4090511283394808  0.2691098408319624
  0.7406600499376318  0.1068512255697229  0.2700926799191455
  0.9117378288294121  0.6077730050929455  0.2673221047748086
  0.5650924891682884  0.1476422465755744  0.7235610310752737
  0.7392009030585561  0.6474584366005210  0.7252838363809737
  0.6170104294210124  0.0414862919501758  0.7298879549379121
  0.7914565460608683  0.5436202493608935  0.7238968579225905
  0.5944442059189765  0.9127026233366724  0.7472832698424219
  0.7696030093901296  0.4119918911090843  0.7278993596698727
  0.5249406964656512  0.9283778162243107  0.7482286243342862
  0.6997765419268804  0.4253021878142668  0.7298304938911663
  0.5088292766337861  0.0670074150417219  0.7338607831242978
  0.6832403357440672  0.5643404131193553  0.7263713557602695
  0.5736221491873524  0.1394615165677501  0.2146339660216736
  0.7429743941099060  0.6374715057429764  0.2212332622914094
  0.6258118033979747  0.0490760881685203  0.2591974696995547
  0.7971340140266874  0.5525324754439427  0.2541036710302947
  0.6044845220880045  0.9207285489235637  0.2875497459240050
  0.7784068178290778  0.4198717008922259  0.2816783683305745
  0.5351982969731711  0.9230010696514980  0.2639323182441393
  0.7085570306817865  0.4160338785239013  0.2745475945559288
  0.5178674555780751  0.0527054479916209  0.2249278573039738
  0.6888116468634689  0.5434530805763823  0.2375829874785676
  0.5734310951410747  0.4122508610239289  0.7198444951957076
  0.5427506298577216  0.5539681283947869  0.6363604590187905
  0.5374041415347148  0.6385761813662041  0.7396648275852588
  0.5673470289858897  0.5662289681334423  0.8923271432442617
  0.5848301999863584  0.4289836642449812  0.8860396421408056
  0.6106227261451185  0.5024542570011423  0.2754417212428198
  0.5801811313723058  0.3342371268875892  0.2828690385764374
  0.5372131183459947  0.3955244852809905  0.2728546574113700
  0.5381732548086526  0.6147211050135986  0.2667831677821370
  0.5819049679666323  0.6730790330951517  0.2692072672348799
  0.9108521249362819  0.1547117113517011  0.7236392063106601
  0.9679832213368054  0.0800331217084964  0.7352071981111981
  0.9535266587962390  0.9386995219412814  0.7364791525034865
  0.8842287455796259  0.9152077229580434  0.7259772164736075
  0.8602163650933878  0.0423320190651299  0.7156324476853314
  0.9235879925405376  0.0807588635327801  0.1528840281736653
  0.9675424012007459  0.0835882164975609  0.2743785650945983
  0.9418245178881411  0.9954568665452508  0.3516034538970714
  0.8824708374168413  0.9337009625000288  0.2913872453286686
  0.8693067983159332 -0.0167449011525257  0.1768144394431868
  0.7444093113631317  0.9274799575265097  0.6995820760651521
  0.9135259653260974  0.4424119388586301  0.6833071436054414
  0.7232203726315352  0.0991552949395444  0.6411835295113290
  0.8856067005711832  0.4031084703030209  0.8302389182707995
  0.7242735322358164  0.1637659089415865  0.7568838971404331
  0.9028051100556237  0.5241861411166164  0.8875082807682834
  0.7438699279351025  0.0413572907483803  0.8940744484945746
  0.9372148381531415  0.6574547790536837  0.7791716953208846
  0.7550030274482098  0.9014738841706788  0.8653916281221794
  0.9479052728355426  0.6028209813037971  0.6625987101301523
  0.7850364387720036  0.0024972900786038  0.2768154835739203
  0.9582776801064335  0.5131898571889254  0.2667588980154743
  0.7531780297810226  0.8369609054354231  0.2891818117446955
  0.9305901404013222  0.3403968663202259  0.2715181301836739
  0.7107382150843244  0.9020271581914932  0.2824899554327864
  0.8865594245963760  0.3949046148666913  0.2713217266808476
  0.7134009534962026  0.1206790642666505  0.2724950141644916
  0.8842798920830729  0.6162948188576467  0.2700371001310282
  0.7576397007865218  0.1752699188024082  0.2700124696430807
  0.9271903391618119  0.6797286272831505  0.2680044248873455
 
  0.00000000E+00  0.00000000E+00  0.00000000E+00
  0.00000000E+00  0.00000000E+00  0.00000000E+00
  0.00000000E+00  0.00000000E+00  0.00000000E+00
  0.00000000E+00  0.00000000E+00  0.00000000E+00
  0.00000000E+00  0.00000000E+00  0.00000000E+00
  0.00000000E+00  0.00000000E+00  0.00000000E+00
  0.00000000E+00  0.00000000E+00  0.00000000E+00
  0.00000000E+00  0.00000000E+00  0.00000000E+00
  0.00000000E+00  0.00000000E+00  0.00000000E+00
  0.00000000E+00  0.00000000E+00  0.00000000E+00
  0.00000000E+00  0.00000000E+00  0.00000000E+00
  0.00000000E+00  0.00000000E+00  0.00000000E+00
  0.00000000E+00  0.00000000E+00  0.00000000E+00
  0.00000000E+00  0.00000000E+00  0.00000000E+00
  0.00000000E+00  0.00000000E+00  0.00000000E+00
  0.00000000E+00  0.00000000E+00  0.00000000E+00
  0.00000000E+00  0.00000000E+00  0.00000000E+00
  0.00000000E+00  0.00000000E+00  0.00000000E+00
  0.00000000E+00  0.00000000E+00  0.00000000E+00
  0.00000000E+00  0.00000000E+00  0.00000000E+00
  0.00000000E+00  0.00000000E+00  0.00000000E+00
  0.00000000E+00  0.00000000E+00  0.00000000E+00
  0.00000000E+00  0.00000000E+00  0.00000000E+00
  0.00000000E+00  0.00000000E+00  0.00000000E+00
  0.00000000E+00  0.00000000E+00  0.00000000E+00
  0.00000000E+00  0.00000000E+00  0.00000000E+00
  0.00000000E+00  0.00000000E+00  0.00000000E+00
  0.00000000E+00  0.00000000E+00  0.00000000E+00
  0.00000000E+00  0.00000000E+00  0.00000000E+00
  0.00000000E+00  0.00000000E+00  0.00000000E+00
  0.00000000E+00  0.00000000E+00  0.00000000E+00
  0.00000000E+00  0.00000000E+00  0.00000000E+00
  0.00000000E+00  0.00000000E+00  0.00000000E+00
  0.00000000E+00  0.00000000E+00  0.00000000E+00
  0.00000000E+00  0.00000000E+00  0.00000000E+00
  0.00000000E+00  0.00000000E+00  0.00000000E+00
  0.00000000E+00  0.00000000E+00  0.00000000E+00
  0.00000000E+00  0.00000000E+00  0.00000000E+00
  0.00000000E+00  0.00000000E+00  0.00000000E+00
  0.00000000E+00  0.00000000E+00  0.00000000E+00
  0.00000000E+00  0.00000000E+00  0.00000000E+00
  0.00000000E+00  0.00000000E+00  0.00000000E+00
  0.00000000E+00  0.00000000E+00  0.00000000E+00
  0.00000000E+00  0.00000000E+00  0.00000000E+00
  0.00000000E+00  0.00000000E+00  0.00000000E+00
  0.00000000E+00  0.00000000E+00  0.00000000E+00
  0.00000000E+00  0.00000000E+00  0.00000000E+00
  0.00000000E+00  0.00000000E+00  0.00000000E+00
  0.00000000E+00  0.00000000E+00  0.00000000E+00
  0.00000000E+00  0.00000000E+00  0.00000000E+00
  0.00000000E+00  0.00000000E+00  0.00000000E+00
  0.00000000E+00  0.00000000E+00  0.00000000E+00
  0.00000000E+00  0.00000000E+00  0.00000000E+00
  0.00000000E+00  0.00000000E+00  0.00000000E+00
  0.00000000E+00  0.00000000E+00  0.00000000E+00
  0.00000000E+00  0.00000000E+00  0.00000000E+00
  0.00000000E+00  0.00000000E+00  0.00000000E+00
  0.00000000E+00  0.00000000E+00  0.00000000E+00
  0.00000000E+00  0.00000000E+00  0.00000000E+00
  0.00000000E+00  0.00000000E+00  0.00000000E+00
  0.00000000E+00  0.00000000E+00  0.00000000E+00
  0.00000000E+00  0.00000000E+00  0.00000000E+00
  0.00000000E+00  0.00000000E+00  0.00000000E+00
  0.00000000E+00  0.00000000E+00  0.00000000E+00
  0.00000000E+00  0.00000000E+00  0.00000000E+00
  0.00000000E+00  0.00000000E+00  0.00000000E+00
  0.00000000E+00  0.00000000E+00  0.00000000E+00
  0.00000000E+00  0.00000000E+00  0.00000000E+00
  0.00000000E+00  0.00000000E+00  0.00000000E+00
  0.00000000E+00  0.00000000E+00  0.00000000E+00
  0.00000000E+00  0.00000000E+00  0.00000000E+00
  0.00000000E+00  0.00000000E+00  0.00000000E+00
  0.00000000E+00  0.00000000E+00  0.00000000E+00
  0.00000000E+00  0.00000000E+00  0.00000000E+00
  0.00000000E+00  0.00000000E+00  0.00000000E+00
  0.00000000E+00  0.00000000E+00  0.00000000E+00
  0.00000000E+00  0.00000000E+00  0.00000000E+00
  0.00000000E+00  0.00000000E+00  0.00000000E+00
  0.00000000E+00  0.00000000E+00  0.00000000E+00
  0.00000000E+00  0.00000000E+00  0.00000000E+00
  0.00000000E+00  0.00000000E+00  0.00000000E+00
  0.00000000E+00  0.00000000E+00  0.00000000E+00
  0.00000000E+00  0.00000000E+00  0.00000000E+00
  0.00000000E+00  0.00000000E+00  0.00000000E+00
  0.00000000E+00  0.00000000E+00  0.00000000E+00
  0.00000000E+00  0.00000000E+00  0.00000000E+00
  0.00000000E+00  0.00000000E+00  0.00000000E+00
  0.00000000E+00  0.00000000E+00  0.00000000E+00
  0.00000000E+00  0.00000000E+00  0.00000000E+00
  0.00000000E+00  0.00000000E+00  0.00000000E+00
  0.00000000E+00  0.00000000E+00  0.00000000E+00
  0.00000000E+00  0.00000000E+00  0.00000000E+00
  0.00000000E+00  0.00000000E+00  0.00000000E+00
  0.00000000E+00  0.00000000E+00  0.00000000E+00
  0.00000000E+00  0.00000000E+00  0.00000000E+00
  0.00000000E+00  0.00000000E+00  0.00000000E+00
  0.00000000E+00  0.00000000E+00  0.00000000E+00
  0.00000000E+00  0.00000000E+00  0.00000000E+00
  0.00000000E+00  0.00000000E+00  0.00000000E+00
  0.00000000E+00  0.00000000E+00  0.00000000E+00
  0.00000000E+00  0.00000000E+00  0.00000000E+00
  0.00000000E+00  0.00000000E+00  0.00000000E+00
  0.00000000E+00  0.00000000E+00  0.00000000E+00
  0.00000000E+00  0.00000000E+00  0.00000000E+00
  0.00000000E+00  0.00000000E+00  0.00000000E+00
  0.00000000E+00  0.00000000E+00  0.00000000E+00
  0.00000000E+00  0.00000000E+00  0.00000000E+00
  0.00000000E+00  0.00000000E+00  0.00000000E+00
  0.00000000E+00  0.00000000E+00  0.00000000E+00
  0.00000000E+00  0.00000000E+00  0.00000000E+00
  0.00000000E+00  0.00000000E+00  0.00000000E+00
  0.00000000E+00  0.00000000E+00  0.00000000E+00
  0.00000000E+00  0.00000000E+00  0.00000000E+00
  0.00000000E+00  0.00000000E+00  0.00000000E+00
  0.00000000E+00  0.00000000E+00  0.00000000E+00
  0.00000000E+00  0.00000000E+00  0.00000000E+00
  0.00000000E+00  0.00000000E+00  0.00000000E+00
  0.00000000E+00  0.00000000E+00  0.00000000E+00
  0.00000000E+00  0.00000000E+00  0.00000000E+00
  0.00000000E+00  0.00000000E+00  0.00000000E+00
  0.00000000E+00  0.00000000E+00  0.00000000E+00
  0.00000000E+00  0.00000000E+00  0.00000000E+00
  0.00000000E+00  0.00000000E+00  0.00000000E+00
  0.00000000E+00  0.00000000E+00  0.00000000E+00
  0.00000000E+00  0.00000000E+00  0.00000000E+00
  0.00000000E+00  0.00000000E+00  0.00000000E+00
  0.00000000E+00  0.00000000E+00  0.00000000E+00
  0.00000000E+00  0.00000000E+00  0.00000000E+00
  0.00000000E+00  0.00000000E+00  0.00000000E+00
  0.00000000E+00  0.00000000E+00  0.00000000E+00
  0.00000000E+00  0.00000000E+00  0.00000000E+00
  0.00000000E+00  0.00000000E+00  0.00000000E+00
  0.00000000E+00  0.00000000E+00  0.00000000E+00
  0.00000000E+00  0.00000000E+00  0.00000000E+00
  0.00000000E+00  0.00000000E+00  0.00000000E+00
  0.00000000E+00  0.00000000E+00  0.00000000E+00
  0.00000000E+00  0.00000000E+00  0.00000000E+00
  0.00000000E+00  0.00000000E+00  0.00000000E+00
  0.00000000E+00  0.00000000E+00  0.00000000E+00
  0.00000000E+00  0.00000000E+00  0.00000000E+00
  0.00000000E+00  0.00000000E+00  0.00000000E+00
  0.00000000E+00  0.00000000E+00  0.00000000E+00
  0.00000000E+00  0.00000000E+00  0.00000000E+00
  0.00000000E+00  0.00000000E+00  0.00000000E+00
  0.00000000E+00  0.00000000E+00  0.00000000E+00
  0.00000000E+00  0.00000000E+00  0.00000000E+00
  0.00000000E+00  0.00000000E+00  0.00000000E+00
  0.00000000E+00  0.00000000E+00  0.00000000E+00
  0.00000000E+00  0.00000000E+00  0.00000000E+00
  0.00000000E+00  0.00000000E+00  0.00000000E+00
  0.00000000E+00  0.00000000E+00  0.00000000E+00
  0.00000000E+00  0.00000000E+00  0.00000000E+00
  0.00000000E+00  0.00000000E+00  0.00000000E+00
  0.00000000E+00  0.00000000E+00  0.00000000E+00
  0.00000000E+00  0.00000000E+00  0.00000000E+00
  0.00000000E+00  0.00000000E+00  0.00000000E+00
  0.00000000E+00  0.00000000E+00  0.00000000E+00
  0.00000000E+00  0.00000000E+00  0.00000000E+00
  0.00000000E+00  0.00000000E+00  0.00000000E+00
  0.00000000E+00  0.00000000E+00  0.00000000E+00
  0.00000000E+00  0.00000000E+00  0.00000000E+00
  0.00000000E+00  0.00000000E+00  0.00000000E+00
  0.00000000E+00  0.00000000E+00  0.00000000E+00
  0.00000000E+00  0.00000000E+00  0.00000000E+00
  0.00000000E+00  0.00000000E+00  0.00000000E+00
  0.00000000E+00  0.00000000E+00  0.00000000E+00
  0.00000000E+00  0.00000000E+00  0.00000000E+00
  0.00000000E+00  0.00000000E+00  0.00000000E+00
  0.00000000E+00  0.00000000E+00  0.00000000E+00
  0.00000000E+00  0.00000000E+00  0.00000000E+00
  0.00000000E+00  0.00000000E+00  0.00000000E+00
  0.00000000E+00  0.00000000E+00  0.00000000E+00
  0.00000000E+00  0.00000000E+00  0.00000000E+00
  0.00000000E+00  0.00000000E+00  0.00000000E+00
  0.00000000E+00  0.00000000E+00  0.00000000E+00
  0.00000000E+00  0.00000000E+00  0.00000000E+00
  0.00000000E+00  0.00000000E+00  0.00000000E+00
  0.00000000E+00  0.00000000E+00  0.00000000E+00
  0.00000000E+00  0.00000000E+00  0.00000000E+00
  0.00000000E+00  0.00000000E+00  0.00000000E+00
  0.00000000E+00  0.00000000E+00  0.00000000E+00
  0.00000000E+00  0.00000000E+00  0.00000000E+00
  0.00000000E+00  0.00000000E+00  0.00000000E+00
  0.00000000E+00  0.00000000E+00  0.00000000E+00
  0.00000000E+00  0.00000000E+00  0.00000000E+00
  0.00000000E+00  0.00000000E+00  0.00000000E+00
  0.00000000E+00  0.00000000E+00  0.00000000E+00
  0.00000000E+00  0.00000000E+00  0.00000000E+00
  0.00000000E+00  0.00000000E+00  0.00000000E+00
  0.00000000E+00  0.00000000E+00  0.00000000E+00
  0.00000000E+00  0.00000000E+00  0.00000000E+00
  0.00000000E+00  0.00000000E+00  0.00000000E+00
  0.00000000E+00  0.00000000E+00  0.00000000E+00
  0.00000000E+00  0.00000000E+00  0.00000000E+00
  0.00000000E+00  0.00000000E+00  0.00000000E+00
  0.00000000E+00  0.00000000E+00  0.00000000E+00
  0.00000000E+00  0.00000000E+00  0.00000000E+00
  0.00000000E+00  0.00000000E+00  0.00000000E+00
  0.00000000E+00  0.00000000E+00  0.00000000E+00
  0.00000000E+00  0.00000000E+00  0.00000000E+00
  0.00000000E+00  0.00000000E+00  0.00000000E+00
  0.00000000E+00  0.00000000E+00  0.00000000E+00
  0.00000000E+00  0.00000000E+00  0.00000000E+00
