case1                                   
   1.00000000000000     
    36.9920005797999991    0.0000000000000000    0.0000000000000000
     0.0000000000000000   23.5515995025999985    0.0000000000000000
     0.0000000000000000    0.0000000000000000   13.7638998031999993
   I    Pb   Cs   C    N    H 
   143    48    22    24    48   120
Direct
  0.3470731481530646  0.0028823498945781  0.0515590165703827
  0.1769074284273627  0.2562346736327620  0.0465675364091290
  0.0717198478731641  0.1670899291650693  0.0107682809907278
  0.2396021588569800  0.4135497368988392  0.0047143547860531
  0.1347170534612508  0.0042765493651771  0.5964001632447825
  0.2968805138781032  0.2551167356794183  0.5558701045291695
  0.2369002739396254  0.1014117848082852  0.4842730537141835
  0.0748056077299965  0.3482522183774482  0.4985956007875593
  0.1251382179658993  0.0072580598761203  0.9448441150466361
  0.3020909897098524  0.2552488676161840  0.0411861148875435
  0.2388550508367805  0.0966951920052992  0.0045722013057349
  0.0734882611486028  0.3485575813214024  0.0267345358287202
  0.3424525642344015  0.0075246513636816  0.5387047353015327
  0.1774037163918677  0.2616662160615492  0.5127393681527127
  0.0760966988384039  0.1690848546489059  0.5047266218150807
  0.2400094418015206  0.4182013980605256  0.5037844216830389
  0.3241517738216751  0.1336858610760370  0.2668236522741234
  0.1612436231806205  0.3929059824581090  0.2618906821194626
  0.1664033973394621  0.1520798742751793  0.7638804738977394
  0.3226024815519586  0.3896994059232674  0.7772207489171187
  0.3176779285044953  0.1264385735798087  0.7769848775879136
  0.1619446211362396  0.3583983592882516  0.7742141686398257
  0.1566850604664256  0.1112683101538081  0.2414058722264357
  0.3221817454930966  0.3727006155816161  0.2705158355457291
  0.6762013226544404  0.5003313038487366  0.0499654479323528
  0.5072049897934447  0.2550653913095435  0.0567935440665446
  0.4064511650066790  0.1597757644189303  0.9957032031288423
  0.5726267409902993  0.3959619165327244  0.9299300022656640
  0.4594391811892314  0.0043185861251783  0.5416089934741568
  0.6253609677273356  0.2537454742000961  0.5256290226296783
  0.5704359553089375  0.0945033355841591  0.4889197482824226
  0.4052056138681284  0.3470953766440980  0.5029715514464717
  0.4650643307316417  0.0046620414686385  0.0162414763747091
  0.6407545955036509  0.2512065362671292  0.0355557531658589
  0.5722279608290214  0.0949636193595207  0.9889324963188130
  0.4063703869223856  0.3499609699071142  0.0140150328419428
  0.6814025076380966  0.0038382645722771  0.4861180998444287
  0.5093743651204966  0.2556177590807011  0.4724635479796246
  0.4040731976023772  0.1634584018223404  0.5126892208087027
  0.5713428934697480  0.4164349191164560  0.4882509667091774
  0.6520326505566452  0.1304598635717913  0.2643483718684697
  0.4783787421932205  0.3877568873417315  0.2625445053057469
  0.4840617292158249  0.1469559273482968  0.7495125569111090
  0.6668916241156757  0.3958872031196190  0.7410066657597012
  0.6447455821312915  0.1284141897870560  0.7481275845690362
  0.4729842670577932  0.3746780354262508  0.7621511780879829
  0.4759308128464569  0.1186395992927235  0.2637589851368918
  0.6523570910159872  0.3714076715234988  0.2652384661928902
  0.0046333286885978  0.0106317223873377  0.0395397674236995
  0.8445211666441521  0.2521646706871321  0.0448010112300017
  0.7394193103117390  0.1496590790650345  0.9305877335409024
  0.9100596650671047  0.4066605604747746  0.9249482041740600
  0.7976805487687881  0.0054209739514823  0.5159249009025191
  0.9690898449145182  0.2604895739053122  0.5002951195323556
  0.9088553557635433  0.0998038691689052  0.4922508196472303
  0.7399561880648469  0.3446461543365869  0.4867382190594058
  0.8118437994418154  0.4988968369404668  0.0415979206925960
  0.9678899603576179  0.2595358784674142  0.0130823645310607
  0.9072145650364993  0.0964489285515242  0.9763378019415989
  0.7426370865677767  0.3471491733908193  0.9853943327421363
  0.0253427459099821  0.0095964385591110  0.4899821144184183
  0.8539384359406359  0.2552756662330193  0.4999985673452743
  0.7387591601289248  0.1647767758492833  0.4984457905695724
  0.9078972994311787  0.4207078803826271  0.4857109180469311
  0.0041571942033111  0.1392317466527857  0.2638662779583312
  0.8231751518599505  0.3796353444090375  0.2638314710155640
  0.8316707901941518  0.1293192127915456  0.7480412493648095
  0.0137937944722499  0.3957598971154840  0.7506299167859791
  0.9942921747401586  0.1469669951766905  0.7376714648774449
  0.8168394469424324  0.3815118382663974  0.7385881136682629
  0.8270591625690993  0.1224872962094410  0.2638703345056948
  0.9995949248419844  0.3743047483528110  0.2584849567323663
  0.3470186742371181  0.5075948766722854  0.0527190822139245
  0.1771481039344132  0.7562388200867848  0.0472855206555070
  0.0720217041363699  0.6675388447190342  0.0102716109321953
  0.2408222851045863  0.9133817462433589  0.0027745495130559
  0.1348255651435218  0.5039640809242968  0.5968249124195982
  0.2969089326715915  0.7554366545414724  0.5527419895459278
  0.2362902572101467  0.5997982580675847  0.4865158940139898
  0.0746657063487300  0.8481149366037264  0.4982915003946118
  0.1251308008069307  0.5073344451725339  0.9448337708262400
  0.3015638944395423  0.7550074773157095  0.0473050990568053
  0.2391956441886052  0.5962138506073249  0.0010212855773763
  0.0744491594162959  0.8486209498070694  0.0271924036318480
  0.3431291512430663  0.5038701624001423  0.5404647194586384
  0.1772359219045533  0.7616734386410814  0.5138870808352858
  0.0759091720655633  0.6691148670061509  0.5046919062066643
  0.2391612000536718  0.9193937387079442  0.5116172333030091
  0.3229349095183893  0.6308995635114836  0.2777758832020678
  0.1614532950279187  0.8929834792283309  0.2627240547195689
  0.1664665557765677  0.6517006328678862  0.7644650206378699
  0.3228226231822558  0.8895350938735627  0.7685921463694263
  0.3180411685496835  0.6267120223239776  0.7684096324159762
  0.1621516853144001  0.8588028167981333  0.7755026505255140
  0.1572391317291967  0.6110211145173300  0.2408170876613690
  0.3178610685105784  0.8742270609131080  0.2777844555040294
  0.6769944743865235  0.0002208335904665  0.0514719544967083
  0.4057135102631007  0.6653069094007841 -0.0000818058025036
  0.5720717248752162  0.8942730581007218  0.9416915498463073
  0.4592452820417532  0.5063637077123827  0.5425917147628636
  0.6251671205414153  0.7538910704611572  0.5261529077292655
  0.5693122015377461  0.5952456076626746  0.4892777174262317
  0.4050215267617235  0.8486498509270149  0.5028057372734680
  0.4677453770633067  0.5113937315916770  0.0143833205053646
  0.6413725182118797  0.7519253510663391  0.0369254594769932
  0.5719303469499796  0.6026911692242936  0.9927889153647124
  0.4064346564471055  0.8424005275913200  0.0139666559082376
  0.6813282945772610  0.5041015650477801  0.4861295987273780
  0.5094301343819833  0.7554137955436484  0.4845302869696462
  0.4040040321632877  0.6632870708037014  0.5141307713362949
  0.5705823810497096  0.9159037748013003  0.4871823531594418
  0.6520616388155523  0.6301934305536649  0.2647435183073359
  0.4784205364773062  0.8775955017310175  0.2513850580719368
  0.4824792030819301  0.6418668045551655  0.7635172030875790
  0.6664187091263885  0.8959645544109606  0.7419190367816830
  0.6437358983001291  0.6307420450650020  0.7484048519164764
  0.4726997520963395  0.8804069936679481  0.7666732479994501
  0.4746125796010222  0.6280570633919432  0.2549330194174660
  0.6520153655871910  0.8711947298109195  0.2654967981495971
  0.0046909321455874  0.5108529038143194  0.0397295159248737
  0.8444959771070972  0.7521639237358768  0.0450400153312455
  0.7395796080697739  0.6499763645860498  0.9302351037614228
  0.9106634008609635  0.9066407442866719  0.9263096210522194
  0.7977047349658275  0.5054423357025691  0.5159261464375005
  0.9689765313852968  0.7604940914807566  0.5007151807372574
  0.9087764613821881  0.5991566722059349  0.4915616054507191
  0.7396308925941154  0.8445248955219263  0.4862745401360410
  0.8118459550023546  0.9989030424328635  0.0416163849159454
  0.9680315126978366  0.7595705301709845  0.0140634872096048
  0.9073847953229043  0.5961860729011259  0.9767876449552314
  0.7430187276629723  0.8466660519076549  0.9856840775295942
  0.0253210294237761  0.5096425421616262  0.4897666244931428
  0.8539081606303842  0.7553106485771999  0.5002948532548513
  0.7385032551027165  0.6644310690878302  0.4988184613491564
  0.9077634313224272  0.9210747116965597  0.4854401334392033
  0.0041424376801322  0.6392354643259841  0.2638865809924892
  0.8231474950181826  0.8796447520478995  0.2639074219938568
  0.8316958109226602  0.6288216259088010  0.7485044187448971
  0.0142845322936488  0.8956201052623654  0.7511496023253692
  0.9945211206713249  0.6470958972958923  0.7382788464849730
  0.8170638607468602  0.8816916427809977  0.7392112839048240
  0.8270039275332424  0.6224220603146643  0.2640928455926924
  0.9995851250203215  0.8741920140807700  0.2585640369466669
  0.1533234991038933  0.1265130958796644  0.0171452084251635
  0.3220451601876676  0.3833432750884556  0.9985773232720172
  0.3208668031108050  0.1280288011274098  0.9988405392965347
  0.1542509005612669  0.3850662102574846  0.9885242006482682
  0.1551147566195191  0.1287758919399013  0.5472915719184415
  0.3208807682169663  0.3774972196518969  0.4919591458834351
  0.3203575558104336  0.1323797959448011  0.4892033731944532
  0.1555877439483655  0.3893159852465062  0.4859656099201522
  0.4905365361102356  0.1352797787715832  0.9702683682967325
  0.6605236950042984  0.3777203722167955  0.9619633360880346
  0.6569820259199943  0.1245485937837982  0.9708472477385733
  0.4891450193324954  0.3783362433803996  0.9800366205718385
  0.4877608373570940  0.1268112261842722  0.4867975952830896
  0.6569011196378596  0.3755363649692543  0.4920454342928577
  0.6551073285606516  0.1298894019879803  0.4913071235439629
  0.4882643536245460  0.3838674847600926  0.4843584374104468
  0.8255577800652397  0.1264539211881693  0.9719843564706563
  0.9954511005602936  0.3862788293043403  0.9652804344268493
  0.9906725304433682  0.1361768375772633  0.9585481019842328
  0.8286251693686740  0.3747576607643078  0.9588105953225969
  0.8255702336537734  0.1296258614115124  0.4868509471766586
  0.9933359959548790  0.3866942588735504  0.4767991396726036
  0.9936590984622663  0.1326398982233178  0.4871842947290002
  0.8245371725003672  0.3790815297361367  0.4894328622620399
  0.1534410879501940  0.6266900189718471  0.0164230477552792
  0.3224524172681459  0.8814549640838277  0.9899013840786975
  0.3203289855377452  0.6294520664537762 -0.0096728615693179
  0.1549021714027220  0.8854118058788335  0.9896116736320331
  0.1548152046493964  0.6285121421761876  0.5482732704984979
  0.3196905638672073  0.8798464670695385  0.4998875172261140
  0.3194511273540518  0.6295327124208970  0.5004516316051549
  0.1552522626247444  0.8895924269497698  0.4866413292462496
  0.4883296239268627  0.6338717688688744  0.9834889033490389
  0.6614891105142437  0.8785713765457398  0.9635688480668440
  0.6578019484921119  0.6249901639223410  0.9701763922815158
  0.4865123834592729  0.8832285823324925  0.9852518240592315
  0.4867860953958931  0.6265835477923770  0.4787002526904856
  0.6566323274231488  0.8756682204166213  0.4927949232321775
  0.6549280178338180  0.6300631574496597  0.4919773754991101
  0.4879505689601869  0.8837579166758734  0.4750537965158707
  0.8259673256658051  0.6262542302981547  0.9726735602247960
  0.9962737656623544  0.8858868984790113  0.9656776683433486
  0.9908522814114842  0.6363475100112044  0.9589859876787253
  0.8292481018194365  0.8751380001191023  0.9592704049760894
  0.8257989248478850  0.6294916390778018  0.4872079054172505
  0.9932372321791157  0.8867343314655260  0.4767698380505098
  0.9935972623181550  0.6325943829504598  0.4871710827807988
  0.8244907679519172  0.8791890770216534  0.4895093158571572
  0.2297337175804436  0.0065069161413133  0.7555154004546792
  0.3926470547437255  0.2568906011344044  0.7526868215986874
  0.2448061608767459  0.0042942507628571  0.2478207686454416
  0.4055296850991286  0.2523818260410973  0.2509977951979523
  0.2418066027918255  0.2590617999525557  0.7999222228921420
  0.0778523610054317  0.5005920688395326  0.2356174383089428
  0.2371120185217226  0.2497106793250763  0.2798396877906933
  0.3988772247875970  0.0163971509470879  0.7798349420756518
  0.3992519658473153  0.0006508725242900  0.2930212579125571
  0.0782825797619742  0.2585668101162524  0.7555490642502991
  0.0870548778655908  0.2540084674165289  0.2595238406902430
  0.2298913704816562  0.5042802506567992  0.7533825131822143
  0.3936346664499009  0.7571416312646646  0.7484045013493870
  0.2450906357056812  0.5039750561715964  0.2466659226886311
  0.3957390443273108  0.7533953718642266  0.2621817522072005
  0.2415469945987408  0.7592218409709534  0.7984175743483238
  0.0776571890168612  0.0007188159900213  0.2358059238093734
  0.2367529915574268  0.7490066941274061  0.2838930303332755
  0.3991480512548873  0.5116797134513685  0.7843656436642166
  0.3995011940681975  0.5021312650933452  0.2927016534312631
  0.0785757070718723  0.7587332076053307  0.7551377331251035
  0.0871305299067140  0.7538235629764265  0.2594574776222573
  0.5635218394406594  0.0279195655979100  0.7356102750437086
  0.7374654871720239  0.2769764722883825  0.7273446451355400
  0.5705461282252138  0.0252478064375489  0.2420359936168607
  0.7428658154351930  0.2741788106246915  0.2434510758726328
  0.5669398964063556  0.2437433671943785  0.7524689043405314
  0.5815836173483576  0.2524155563826408  0.2692683319696083
  0.9147347190068439  0.0307199046961202  0.7254868472128743
  0.9211978308822597  0.0126401806691971  0.2164383266605727
  0.7421986432923159  0.0010360441510766  0.7510114373936141
  0.9140407407349799  0.2532926136426434  0.7389515253770499
  0.7551325094805937  0.0032065483141814  0.2721009773175987
  0.9285259905555413  0.2545859042534754  0.2608763655709346
  0.5636265595282637  0.5274768096066061  0.7358525286343541
  0.7376486746965749  0.7772456734957094  0.7274035803177030
  0.5713952823726025  0.5268511413530550  0.2397427809297414
  0.7428966068404926  0.7741230380591878  0.2436395390327592
  0.5647990257392002  0.7454975722594636  0.7591942586016330
  0.5817739480531929  0.7511667033018877  0.2698441097635829
  0.9146679313839376  0.5306806587501115  0.7251573422716019
  0.9212176143190587  0.5124359633319306  0.2165251034170840
  0.7418879256494917  0.5009900189979188  0.7508501137982502
  0.9142283406355641  0.7532288364276418  0.7394438068782939
  0.7550766562140199  0.5030135888604260  0.2720287762129789
  0.9284909745357005  0.7545451014945462  0.2611440405089360
  0.5932453214680449  0.9976146809118758  0.7377933745430536
  0.7683236829270909  0.2495576628401739  0.7280419969241504
  0.5304487905434064  0.0081847686676128  0.7431605347578097
  0.7051682669045323  0.2538681625709404  0.7281479716470188
  0.6016409445363055  0.0014001084534002  0.2617933807182717
  0.7744336533161342  0.2506624619737326  0.2588238485116914
  0.5387285749711528  0.0005538682422285  0.2459403069857337
  0.7113305320113599  0.2491093617026993  0.2509459838766539
  0.5528294251242895  0.2870037391705865  0.7057940922798066
  0.5730939041227238  0.2423421916322969  0.8464294115752858
  0.5651199624653505  0.2030529426659829  0.2703684720746039
  0.5659792482139633  0.3023238142503866  0.2641301280328995
  0.9477786277226865  0.0104949731384110  0.7293593026977031
  0.8849506122884975  0.0005267587700928  0.7214160862530303
  0.9450888807440683  0.0161143990655682  0.2865610284738909
  0.8894499039275464  0.9879615123226688  0.2245854089171708
  0.7347485338408882  0.0511640380027166  0.7143771626735212
  0.8973760187225185  0.2374563763162287  0.8187115229880901
  0.7447895977063861  0.9901748868481666  0.8444306322091244
  0.9343607537031385  0.2986883848113235  0.7309351153327472
  0.7379107436590436  0.9546083038891097  0.2763092896991617
  0.9135009713267925  0.2041172723157779  0.2632149077290830
  0.7401331928512934  0.0536661196659895  0.2684157254156485
  0.9115393031545432  0.3035231867820843  0.2631035430448277
  0.5940061325548091  0.4988390836562105  0.7344532607293069
  0.7684457948243795  0.7496541941546498  0.7269934491908097
  0.5311012155326367  0.5056951782146460  0.7443517003631323
  0.7052997627312394  0.7543206955609078  0.7282000990230286
  0.6010212285518968  0.5010140191868596  0.2670975875015316
  0.7745231652485816  0.7506486584747272  0.2583075155007348
  0.5385288603713726  0.5059025360503080  0.2446359879381901
  0.7114052412438535  0.7489163154625965  0.2511687495613161
  0.5526985838293866  0.7895027606805467  0.7106814354106302
  0.5719824344735368  0.7455265201503176  0.8528361687037520
  0.5653068675063300  0.7019433355438320  0.2760076342341583
  0.5661704353760575  0.8011898231756334  0.2675060202285761
  0.9477627431938718  0.5106514491047375  0.7291416631591882
  0.8849729036944206  0.5002970587433435  0.7207981838742337
  0.9451621231310177  0.5157684252867630  0.2865187074075958
  0.8894518653254139  0.4878157773827405  0.2247091318995855
  0.7345267414349188  0.5512543957756026  0.7145903624247908
  0.8974707035158634  0.7373502225603350  0.8190447659083646
  0.7446394998904688  0.4899208920526895  0.8441522590975131
  0.9344886117382677  0.7986992522211441  0.7315560443485153
  0.7378922058133709  0.4543953079065755  0.2760076465348116
  0.9134337055370955  0.7040944005463643  0.2631449250030796
  0.7400521348885039  0.5534738456050731  0.2684059366868344
  0.9115275969740472  0.8035075116084661  0.2631656625602592
  0.5666285658947688  0.0736667605612966  0.7261460699584252
  0.7387571409324020  0.3232809148854104  0.7261986842576682
  0.6174422075041341  0.0181776820012306  0.7322484984038018
  0.7915768455749792  0.2729497577541685  0.7263404153536350
  0.5937278985422700  0.9548535811281715  0.7491668266742014
  0.7705403661385235  0.2064162791416682  0.7289555947214249
  0.5241162451037600  0.9661375090519735  0.7506281432688406
  0.7005425036968301  0.2111518980313606  0.7285102433652143
  0.5096110199683848  0.0364811181830182  0.7379709941955150
  0.6832833211866433  0.2801955094587187  0.7250081043334187
  0.5711787771873681  0.0693738831988605  0.2178918997123099
  0.7428820336179072  0.3185228002247834  0.2203761848596845
  0.6244479662450502  0.0258302984411845  0.2575220943774722
  0.7969149461857284  0.2756762370812683  0.2519553708246785
  0.6044344161603316  0.9605837100000538  0.2859521687223107
  0.7782485449454558  0.2092904901718708  0.2789683410599481
  0.5349083659238704  0.9597210218292312  0.2685450093045890
  0.7078894665374483  0.2082599840252103  0.2738981899890019
  0.5162054148461095  0.0245681608928771  0.2327449890775185
  0.6885519740496835  0.2725874702803964  0.2384544095375279
  0.5745371169896605  0.2065240284575138  0.7097703966228270
  0.5480517009199715  0.2834968470722153  0.6327739467775995
  0.5433751042938531  0.3222391957060273  0.7408148826646467
  0.5685340674099417  0.2765460540678806  0.8906796058220279
  0.5839384353947301  0.2069927389479985  0.8775645901837873
  0.6110647999736807  0.2519087688105695  0.2725970784371464
  0.5807729992484815  0.1678034837016242  0.2795989625704022
  0.5376910940783733  0.1983379650818212  0.2701891148022567
  0.5386331428705884  0.3081819398539278  0.2635384524870759
  0.5824510252869501  0.3371589359280362  0.2661209373448362
  0.9117218749791114  0.0768011943066271  0.7256021601646565
  0.9687632235296879  0.0387619343386065  0.7317502689506651
  0.9540692592418134  0.9682504321494058  0.7311558223887104
  0.8845930627414987  0.9572964703259341  0.7215959559320511
  0.8608004064304450  0.0213188832202435  0.7179809813236201
  0.9280362309689206  0.0314780310690194  0.1461299128630790
  0.9683970454919325  0.0385816859896333  0.2754726296060701
  0.9397962259547777  0.0011230542974798  0.3549115951771764
  0.8810881667357839  0.9693620695775291  0.2877211029039821
  0.8716586759133601  0.9885720876515015  0.1677679533641675
  0.7468405331216136  0.9661920386914917  0.7001976275191606
  0.9105829500206892  0.2271796795349296  0.6739210474253183
  0.7340273849315404  0.0563774066636478  0.6408085978045863
  0.8814846894161685  0.2019785201209817  0.8168488813202945
  0.7307099204108063  0.0857426663292057  0.7580485714952582
  0.9009091098767891  0.2573550652721830  0.8839838365732909
  0.7408476789987510  0.0205757787467911  0.8963017950424226
  0.9381048246726303  0.3265689578292745  0.7869591843239058
  0.7496250602299420  0.9498101743186010  0.8680643117718523
  0.9478705558207594  0.3049569324529322  0.6669680411132447
  0.7846215333325828  0.0015552579077626  0.2707660642565790
  0.9579842646590077  0.2560710478892029  0.2561126061987728
  0.7530975907218754  0.9186901832546474  0.2837551768098840
  0.9303108631046920  0.1697495733128912  0.2632512223309265
  0.7104680784692916  0.9510204349615963  0.2810442244711427
  0.8863172221488863  0.1970922145919462  0.2689450122258853
  0.7128882451658667  0.0605511308033194  0.2723020436855877
  0.8841684515475008  0.3078742264316765  0.2695446124124462
  0.7571309994590876  0.0878628051325591  0.2677751621338925
  0.9270243454868954  0.3394157685591795  0.2631000600147320
  0.5655696979283039  0.5735400473583582  0.7290268280433670
  0.7390487360783604  0.8235446049816192  0.7273803342215962
  0.6176787448519176  0.5208469969107047  0.7285892755485953
  0.7917531352976777  0.7729068022068128  0.7254276307588858
  0.5954755381908206  0.4558941999741926  0.7430397805130748
  0.7705554537611431  0.7064987991046140  0.7266647387980059
  0.5259965655949485  0.4632311111164572  0.7508238580058147
  0.7005692262757189  0.7116375420027452  0.7274180378457887
  0.5095770450622022  0.5328293194825927  0.7429993538694800
  0.6834611873863583  0.7807885613612753  0.7259759850819363
  0.5744332296587467  0.5690324009220822  0.2077833802095508
  0.7428279498149554  0.8185751715325907  0.2212056015790435
  0.6249191149604872  0.5225211058380542  0.2618178464262469
  0.7969472856539904  0.7757950449262678  0.2514639032641698
  0.6012499049138146  0.4622802799223729  0.3006071890946260
  0.7784699374394716  0.7091711177775727  0.2776819585234480
  0.5325440659922213  0.4666402321226205  0.2720195606996217
  0.7080264070588924  0.7079626571410129  0.2736729391510369
  0.5172481308465359  0.5304910943936819  0.2231974142088764
  0.6885789781259684  0.7723033551723687  0.2389836836643990
  0.5694925181090007  0.7063004690813893  0.7186843504549981
  0.5468594300462186  0.7851360797636744  0.6382240343402882
  0.5459335942840883  0.8267432263262664  0.7440783498882950
  0.5714369476729688  0.7822843376790340  0.8930084651229503
  0.5818819797492502  0.7098000822992196  0.8852501790991025
  0.6112389902336529  0.7504150697978035  0.2650288973998253
  0.5811715523942999  0.6666928251140362  0.2830713135149485
  0.5380384434449949  0.6974542708004099  0.2850541284501730
  0.5390055713133874  0.8075424148247214  0.2760617343915016
  0.5828544655690095  0.8358481418298274  0.2664747323035998
  0.9115275913446852  0.5767398730085387  0.7254877913014811
  0.9686803870513506  0.5390290070738146  0.7317735951724327
  0.9541652421913731  0.4684384892706842  0.7306662392095279
  0.8847392201238599  0.4570653586703556  0.7209366746049524
  0.8607634199094462  0.5209188239655849  0.7174348880523139
  0.9280247219833064  0.5313607482702825  0.1462660077774515
  0.9684879854773090  0.5381774850195242  0.2753764826503548
  0.9399246362758565  0.5006592913843780  0.3548301065905612
  0.8811111615919555  0.4691233398891562  0.2877849506491691
  0.8716458703740875  0.4884667506413995  0.1679262763609101
  0.7462916277457203  0.4661974390763921  0.6997877487605355
  0.9109110515123378  0.7270752155555460  0.6744137463061664
  0.7337879552784828  0.5566460689980195  0.6410601137784768
  0.8816162879567709  0.7018293211883215  0.8170404443708283
  0.7308108442488770  0.5858202964321541  0.7584889334983201
  0.9008435977715551  0.7573067470584005  0.8843288537958907
  0.7408582449963348  0.5202087707900983  0.8962869928249743
  0.9381368230582301  0.8266049074230246  0.7875956692706308
  0.7492006237143909  0.4494036940043025  0.8675260833901801
  0.9480657368325982  0.8049591088315851  0.6676891917506380
  0.7845699530884457  0.5014214548300036  0.2708729401374699
  0.9579608965643707  0.7559935829468831  0.2569198901953429
  0.7531189845150370  0.4185053517778141  0.2833209878275554
  0.9302244611646989  0.6697053812214280  0.2633490328481378
  0.7104372056411202  0.4506343679731268  0.2802914143379779
  0.8862330451298491  0.6970981672848269  0.2683288476261463
  0.7128083047129387  0.5603115004083056  0.2723488300891613
  0.8841432810910342  0.8078977979961973  0.2690744097078704
  0.7570322863483797  0.5876847776619054  0.2680399397908764
  0.9270318452676447  0.8393818148484667  0.2633761705399614
 
  0.00000000E+00  0.00000000E+00  0.00000000E+00
  0.00000000E+00  0.00000000E+00  0.00000000E+00
  0.00000000E+00  0.00000000E+00  0.00000000E+00
  0.00000000E+00  0.00000000E+00  0.00000000E+00
  0.00000000E+00  0.00000000E+00  0.00000000E+00
  0.00000000E+00  0.00000000E+00  0.00000000E+00
  0.00000000E+00  0.00000000E+00  0.00000000E+00
  0.00000000E+00  0.00000000E+00  0.00000000E+00
  0.00000000E+00  0.00000000E+00  0.00000000E+00
  0.00000000E+00  0.00000000E+00  0.00000000E+00
  0.00000000E+00  0.00000000E+00  0.00000000E+00
  0.00000000E+00  0.00000000E+00  0.00000000E+00
  0.00000000E+00  0.00000000E+00  0.00000000E+00
  0.00000000E+00  0.00000000E+00  0.00000000E+00
  0.00000000E+00  0.00000000E+00  0.00000000E+00
  0.00000000E+00  0.00000000E+00  0.00000000E+00
  0.00000000E+00  0.00000000E+00  0.00000000E+00
  0.00000000E+00  0.00000000E+00  0.00000000E+00
  0.00000000E+00  0.00000000E+00  0.00000000E+00
  0.00000000E+00  0.00000000E+00  0.00000000E+00
  0.00000000E+00  0.00000000E+00  0.00000000E+00
  0.00000000E+00  0.00000000E+00  0.00000000E+00
  0.00000000E+00  0.00000000E+00  0.00000000E+00
  0.00000000E+00  0.00000000E+00  0.00000000E+00
  0.00000000E+00  0.00000000E+00  0.00000000E+00
  0.00000000E+00  0.00000000E+00  0.00000000E+00
  0.00000000E+00  0.00000000E+00  0.00000000E+00
  0.00000000E+00  0.00000000E+00  0.00000000E+00
  0.00000000E+00  0.00000000E+00  0.00000000E+00
  0.00000000E+00  0.00000000E+00  0.00000000E+00
  0.00000000E+00  0.00000000E+00  0.00000000E+00
  0.00000000E+00  0.00000000E+00  0.00000000E+00
  0.00000000E+00  0.00000000E+00  0.00000000E+00
  0.00000000E+00  0.00000000E+00  0.00000000E+00
  0.00000000E+00  0.00000000E+00  0.00000000E+00
  0.00000000E+00  0.00000000E+00  0.00000000E+00
  0.00000000E+00  0.00000000E+00  0.00000000E+00
  0.00000000E+00  0.00000000E+00  0.00000000E+00
  0.00000000E+00  0.00000000E+00  0.00000000E+00
  0.00000000E+00  0.00000000E+00  0.00000000E+00
  0.00000000E+00  0.00000000E+00  0.00000000E+00
  0.00000000E+00  0.00000000E+00  0.00000000E+00
  0.00000000E+00  0.00000000E+00  0.00000000E+00
  0.00000000E+00  0.00000000E+00  0.00000000E+00
  0.00000000E+00  0.00000000E+00  0.00000000E+00
  0.00000000E+00  0.00000000E+00  0.00000000E+00
  0.00000000E+00  0.00000000E+00  0.00000000E+00
  0.00000000E+00  0.00000000E+00  0.00000000E+00
  0.00000000E+00  0.00000000E+00  0.00000000E+00
  0.00000000E+00  0.00000000E+00  0.00000000E+00
  0.00000000E+00  0.00000000E+00  0.00000000E+00
  0.00000000E+00  0.00000000E+00  0.00000000E+00
  0.00000000E+00  0.00000000E+00  0.00000000E+00
  0.00000000E+00  0.00000000E+00  0.00000000E+00
  0.00000000E+00  0.00000000E+00  0.00000000E+00
  0.00000000E+00  0.00000000E+00  0.00000000E+00
  0.00000000E+00  0.00000000E+00  0.00000000E+00
  0.00000000E+00  0.00000000E+00  0.00000000E+00
  0.00000000E+00  0.00000000E+00  0.00000000E+00
  0.00000000E+00  0.00000000E+00  0.00000000E+00
  0.00000000E+00  0.00000000E+00  0.00000000E+00
  0.00000000E+00  0.00000000E+00  0.00000000E+00
  0.00000000E+00  0.00000000E+00  0.00000000E+00
  0.00000000E+00  0.00000000E+00  0.00000000E+00
  0.00000000E+00  0.00000000E+00  0.00000000E+00
  0.00000000E+00  0.00000000E+00  0.00000000E+00
  0.00000000E+00  0.00000000E+00  0.00000000E+00
  0.00000000E+00  0.00000000E+00  0.00000000E+00
  0.00000000E+00  0.00000000E+00  0.00000000E+00
  0.00000000E+00  0.00000000E+00  0.00000000E+00
  0.00000000E+00  0.00000000E+00  0.00000000E+00
  0.00000000E+00  0.00000000E+00  0.00000000E+00
  0.00000000E+00  0.00000000E+00  0.00000000E+00
  0.00000000E+00  0.00000000E+00  0.00000000E+00
  0.00000000E+00  0.00000000E+00  0.00000000E+00
  0.00000000E+00  0.00000000E+00  0.00000000E+00
  0.00000000E+00  0.00000000E+00  0.00000000E+00
  0.00000000E+00  0.00000000E+00  0.00000000E+00
  0.00000000E+00  0.00000000E+00  0.00000000E+00
  0.00000000E+00  0.00000000E+00  0.00000000E+00
  0.00000000E+00  0.00000000E+00  0.00000000E+00
  0.00000000E+00  0.00000000E+00  0.00000000E+00
  0.00000000E+00  0.00000000E+00  0.00000000E+00
  0.00000000E+00  0.00000000E+00  0.00000000E+00
  0.00000000E+00  0.00000000E+00  0.00000000E+00
  0.00000000E+00  0.00000000E+00  0.00000000E+00
  0.00000000E+00  0.00000000E+00  0.00000000E+00
  0.00000000E+00  0.00000000E+00  0.00000000E+00
  0.00000000E+00  0.00000000E+00  0.00000000E+00
  0.00000000E+00  0.00000000E+00  0.00000000E+00
  0.00000000E+00  0.00000000E+00  0.00000000E+00
  0.00000000E+00  0.00000000E+00  0.00000000E+00
  0.00000000E+00  0.00000000E+00  0.00000000E+00
  0.00000000E+00  0.00000000E+00  0.00000000E+00
  0.00000000E+00  0.00000000E+00  0.00000000E+00
  0.00000000E+00  0.00000000E+00  0.00000000E+00
  0.00000000E+00  0.00000000E+00  0.00000000E+00
  0.00000000E+00  0.00000000E+00  0.00000000E+00
  0.00000000E+00  0.00000000E+00  0.00000000E+00
  0.00000000E+00  0.00000000E+00  0.00000000E+00