Cs48 Pb48 I144                          
   1.00000000000000     
     8.6638558814621316    0.0000000000000000    0.0000000000000000
     0.0000000000000000    8.9381381498060364  -12.6296143153370881
     0.0000000000000000   71.9387008057646966   50.8282261472064718
   Cs   Pb   I 
    48    48   144
Direct
 -0.0076277951922982  0.5069391461142609  0.0644439709378356
 -0.0140258587616548  0.5142730033670253  0.3081163751154301
 -0.0131726543998639  0.8491808420117825  0.2252569896336805
 -0.0127075280780024  0.1793201757485857  0.1429311387452165
 -0.0103177438772262  0.1794139638658076  0.3928233271699637
  0.5011309923049676 -0.0073801281066673  0.0664981188845782
  0.4853256585335848 -0.0147770271862971  0.3156709781466553
  0.4864127661342286  0.3180729068449294  0.2334960249228106
  0.4902871601326786  0.6528858853179532  0.1490123669668097
  0.4883659943762973  0.6572019521946568  0.3984104362818018
  0.0094893450002600  0.8219501615691954  0.1073147800800140
  0.0137234148684999  0.8198466925782643  0.3572159323293379
  0.0137288603417731  0.1505780429779003  0.2747584123688955
  0.0153795444353161  0.4859092980858556  0.1913956460201543
  0.0026015068198056  0.4985418323531930  0.4366069963280256
  0.5095039598031824  0.3434043014008326  0.1020482953810808
  0.5130820787094261  0.3467777197275076  0.3502906921749526
  0.5136418770308081  0.6815315301415620  0.2664324361073800
  0.5152960077848675  0.0143269334912539  0.1844677871501445
  0.5018997195183902  0.0100848737881625  0.4330897005253974
 -0.0157064307522733  0.8069643113579162  0.7664784352617139
 -0.0092114566284059  0.1468172008947858  0.6020075072915712
 -0.0139995296887751  0.1427653644638314  0.8502394408605454
 -0.0151022967680608  0.4743942722681992  0.6844118757101055
 -0.0012130276874812  0.4803402162560956  0.9331251630038212
  0.4896322074231206  0.6691096722657269  0.6071563619333183
  0.4871137687990585  0.6694966285450978  0.8573003051396408
  0.4852540300307356  0.0028420269948243  0.6915309633697709
  0.4966000782928533  0.9904757989550294  0.9368377519536140
  0.4862786177666323  0.3377308304625463  0.7745567475784412
  0.0104202276552711  0.8355188243952625  0.6490792938077720
  0.0108759468213649  0.8314809743124210  0.8982626860825322
  0.0133322399479807  0.1701050365340704  0.7334581028626261
 -0.0010557941028735  0.4995993103213547  0.5665955291983461
  0.0147061827564244  0.5043843356833781  0.8157493462449099
  0.5072001493735995 -0.0164967883006816  0.5641073747520126
  0.5136885064986605 -0.0259994244999370  0.8080886926817855
  0.5128307322186145  0.3103542738434565  0.6429284434204512
  0.5093345744912351  0.3119985203422554  0.8928589780361119
  0.5130179277307899  0.6400241638942230  0.7251844632536034
  0.4950388475129434  0.3235044643318081  0.4709156210409114
  0.9717301797709992  0.8705879849109868  0.4715706648369722
  0.4729963433995015  0.3544770291696855  0.5292049832083902
  0.0072717592893782  0.8183137001911633  0.5292500968045812
  0.4872475727658928  0.6676032730524148  0.0292614245289103
  0.0301788164684459  0.1398050717653644  0.0293038055829176
  0.5281320499840171  0.6182761207743048  0.9716803172332824
  0.0056844584943536  0.1663924051115478  0.9709562452158089
  0.4993192395027465  0.6647534705466517  0.0849157354575247
  0.4987588383160945  0.6673896523405338  0.3322465995521282
  0.5005263558410512 -0.0001886271371146  0.2501086047705842
  0.5024884107220228  0.3319436395289938  0.1679119701761346
  0.4986419759460799  0.3369721498270779  0.4148212393907051
 -0.0012038274363044  0.4973719251971129  0.1267520287911329
  0.0013932271257444  0.5022525044066840  0.3732954849705586
  0.0065929045297394  0.8297250666185730  0.0413698638744002
 -0.0006098038700126  0.8328215866613601  0.2912049418761018
  0.0006441122374987  0.1667892464238161  0.2089329400882181
 -0.0092033145238501  0.1695407251147782  0.4582845725677916
  0.4934753487540211  0.3303110620426766  0.0400909200759804
  0.5002551964315624  0.3331793243418005  0.2913807190371908
  0.5009698002069550  0.6670551785358437  0.2085269233176378
  0.5079439497742999  0.6673185702488422  0.4600445919126923
  0.4992005367102516  0.0004327810774825  0.1259028038756531
  0.5023098508636612 -0.0004263183385187  0.3741896427872667
  0.0008697544514791  0.1669467749129638  0.0838809845881232
  0.0003436931142147  0.1659818652793106  0.3329030237487782
  0.0006475324901647  0.4999244204754711  0.2499056974112082
  0.0012641246480329  0.8337533654519524  0.1672306078465614
  0.0005123881592290  0.8314710467938266  0.4162732592066334
  0.4995324248970186  0.9884884093346966  0.7498712779975966
  0.4999156160645800  0.3225527830920070  0.5837875142856500
  0.4999809318521462  0.3231211716162881  0.8326944529023861
  0.4990380715940149  0.6550344135924617  0.6671564764812090
  0.5006000640345726  0.6584326261746810  0.9163230314385317
  0.0078379720606387  0.1594645926569498  0.5399443280070364
  0.0001385679319861  0.1553041144330408  0.7913334395428629
  0.0010179973957575  0.4887322284523608  0.6257841983436099
 -0.0010446785078423  0.4898851228668569  0.8741514073218850
 -0.0000819878778381  0.8215543171436053  0.7084946379338710
 -0.0069962520076160  0.8221905512199513  0.9601436257091419
  0.4921760485273782  0.6610811080575525  0.5415272415043676
  0.5001328409635779  0.6558183023394546  0.7911543569216579
  0.5007726141618679  0.9922456504348939  0.6268118845779195
  0.4982331612867904  0.9885951176307680  0.8733482576291476
  0.4989925851664953  0.3215720434701137  0.7088229062605808
  0.5091528197102912  0.3194088885068180  0.9582846876897838
 -0.0005042760316666  0.8267022659335026  0.5850691468843311
  0.0011160817611859  0.8219786061002458  0.8323227954823361
 -0.0023760639288370  0.1567669469235538  0.6678122204351769
  0.0014179444142279  0.1527414475445777  0.9148458784574363
 -0.0006638447990984  0.4885954994824002  0.7500521216517932
 -0.0020193695884218  0.5028199367406264  0.4989474127151603
  0.4990847863215782  0.0024534069911729  0.5008483316310757
  0.0009272389742349  0.4872388952973749  0.0007728748338233
  0.5026825279630789 -0.0135506840044317 -0.0008350056998053
  0.7911231732588841  0.5851986110599422  0.1015033903887423
  0.8025072783067474  0.5846098431883899  0.3465552171158764
  0.8038581173185382  0.9134725470400453  0.2639323775147498
  0.8068507922555946  0.2487340662060124  0.1817232368727378
  0.7795335523142463  0.2500259063604507  0.4313655729118061
  0.3026417875082046  0.9171431705661784  0.2769721940514518
  0.3049766399978439  0.2507295136298906  0.1949146649059711
  0.2638290975408848  0.2464349951781837  0.4376881070722755
  0.2915403170891446  0.5814038070997077  0.1107208371414704
  0.3054896110050159  0.5869280701443608  0.3596797707771140
  0.1991988456333430  0.0558588323803355  0.1074296056900178
  0.1979870180064954  0.0504302082593095  0.3558059483695480
  0.1977499985235236  0.3802366174303153  0.2723348625360275
  0.1989700079498539  0.7147749209638077  0.1896495141771505
  0.2134970004075948  0.7248016058988305  0.4394657323035943
  0.7015849936093129  0.1128727043968208  0.1028230125587073
  0.6989009960953199  0.1151045281471255  0.3513019373862278
  0.6983182305363242  0.4517942596933407  0.2688825169042545
  0.6977936046709428  0.7848187648465893  0.1858290675045217
  0.6999811606458424  0.7753721717773441  0.4344896101756710
  0.2127729617498625  0.7477047199700709  0.0684967024782309
  0.1939586409430102  0.7509930334391188  0.3184093586993883
  0.1979450819362716  0.0863259214776919  0.2360916268430216
  0.2007375671083197  0.4138540705942803  0.1530427032947260
  0.1998249699301873  0.4178187288820223  0.3995260965629949
  0.6969073836300140  0.4122966372468675  0.1405762834477283
  0.7009029074686743  0.4222527800303905  0.3887789385013296
  0.7247524665968936  0.7580840352420373  0.0615298455051555
  0.6947118974021743  0.7492644644829378  0.3051035943755106
  0.6974364402372208  0.0831987604180905  0.2231830402868468
  0.7880854850843690  0.2738169432578751  0.0605331261744263
  0.8007467449186455  0.2857790639309874  0.3106866184552153
  0.8026822701153319  0.6192853692074495  0.2276340367580585
  0.8031000801339936  0.9481355285385049  0.1442050041907787
  0.8004789233627174  0.9456147113374506  0.3931247759612634
  0.3049473704285354  0.2248359368609067  0.0661531888616822
  0.3015359118976599  0.2149837216632639  0.3138481266842236
  0.3020674683245460  0.5480050572019688  0.2308244165217117
  0.3028819861134865  0.8846288322267170  0.1487387118729464
  0.2985033690177469  0.8870816017890307  0.3971115557755742
  0.0358125646528183  0.3356458709401328  0.1043092583153065
  0.0499951641472641  0.3339513873164151  0.3533620732247326
  0.0536058457169566  0.6654628563984522  0.2707734112378452
  0.0506360558743004  0.0016425099152915  0.1877120328490905
  0.0250715720043754  0.0076626337978484  0.4353484763906648
  0.5331224923368777  0.8314339873333454  0.1057554558188834
  0.5498083056864483  0.8330224357655506  0.3534084367283806
  0.5540769872522181  0.1643614776619561  0.2712799534301799
  0.5538851799296934  0.5013803163369972  0.1876966698224554
  0.5310358655858778  0.5027132231312016  0.4368136786076474
  0.9842844854370961 -0.0080870605936268  0.0647063507587021
  0.9494329314522716 -0.0015160249852498  0.3122960579102219
  0.9464386596994135  0.3349279599467317  0.2290493477817442
  0.9569671232429143  0.6644702812287238  0.1470308243663944
  0.9605854850479486  0.6651887325719851  0.3955148680456470
  0.4725704829330220  0.4965454544049973  0.0635713767522083
  0.4463865803311428  0.5001704961395186  0.3118624162030145
  0.4480224857507841  0.8359411281367096  0.2286787612237773
  0.4537822464541663  0.1666565520813294  0.1467186233242526
  0.4653743316796398  0.1714239985329475  0.3937375310432834
  0.8005049652402516  0.0374352334658750  0.7689321927801794
  0.7990027523788139  0.3755737611584675  0.6028403001031460
  0.7991500006884641  0.3742327733323733  0.8515407876042067
  0.8025167223650547  0.7045412107392980  0.6857681082904072
  0.8007307813510568  0.7140919010062859  0.9345607642592691
  0.3010598952574576  0.4354150786070066  0.6070796441036254
  0.3008093243234384  0.4397115550824685  0.8553413933076743
  0.3016228831740612  0.7738521375433521  0.6896090951442492
  0.2862098376653784  0.7636283892470788  0.9395461487994838
  0.3016953136891543  0.1086519505424831  0.7721323270082311
  0.2052064530545894  0.9109526842291435  0.6108432895499122
  0.1962882729389246  0.9022464103497936  0.8596141701860568
  0.1943941259525506  0.2371918504113277  0.6949437722709213
  0.2355966566834458  0.2440969641121520  0.9376380009786610
  0.1971583204449315  0.5720245603425852  0.7768978616042105
  0.7064881490624685  0.9057670434739301  0.6013742201158364
  0.6984442641690767  0.9055918627279491  0.8466772429049060
  0.6934079043806187  0.2395153112718593  0.6816737323402007
  0.7200191237153581  0.2400794946230458  0.9312431978975074
  0.6962621863726033  0.5755354600040404  0.7638632002229976
  0.1975891589947283  0.6035533991375513  0.6487449581604097
  0.2041089148533894  0.6013325057733349  0.8970476987721945
  0.1977048216612551  0.9399418847586339  0.7309671658355889
  0.1961794723698774  0.2661298104475071  0.5658920638222379
  0.1976738060772180  0.2739125125822163  0.8138101458870285
  0.7128632585061571  0.2149819554426359  0.5605052321649953
  0.6985992267492279  0.2025156995289019  0.8105670241218964
  0.6979188979663137  0.5400577638756314  0.6443168861719671
  0.7024141770310536  0.5458070963627912  0.8932005553229483
  0.6975866152474808  0.8702544088926604  0.7274063030047879
  0.7680167191898923  0.7369794206351904  0.5618573449858462
  0.8038253529274157  0.7399944620606350  0.8052597328555299
  0.8041784896330916  0.0760221764518607  0.6405055156196866
  0.7982483444031183  0.0688894910760528  0.8888143426316985
  0.8012984725225772  0.4064730514316682  0.7231080398883791
  0.2825209121399535  0.7422469223224845  0.5684224178280312
  0.3050226931019812  0.7368582854897521  0.8184235380065338
  0.2997538971898487  0.0741423454934963  0.6531856617558749
  0.2998260199483077  0.0712199993705168  0.8996407994178417
  0.3012266806150868  0.4016930343974557  0.7359423296838180
  0.0297509371633027  0.9937314800888049  0.5634200155687528
  0.0536413248864961  0.9884409100561357  0.8118095653883026
  0.0478443088436894  0.3219850309422808  0.6464733251020592
  0.0363594568296442  0.3186858181276293  0.8937559862598616
  0.0520255984104337  0.6528138628424746  0.7287571257824306
  0.5433107730914977  0.8234077874522263  0.6467377681444827
  0.5377498831377541  0.8245194878443518  0.8954144507176351
  0.5538165367903974  0.1543966935887822  0.7291352343965126
  0.5203204700443409  0.4995310992294936  0.5649085060550388
  0.5526050011555353  0.4891070169472592  0.8118988124218199
  0.9653380890087209  0.6594902897456988  0.6059375273042681
  0.9502519502860528  0.6573251958826052  0.8535916462909876
  0.9467151986888577  0.9869611828618516  0.6874970634735671
  0.9694793129557322  0.9868208241714731  0.9369190038150684
  0.9455453675968752  0.3235953679816461  0.7710651401172972
  0.4458520320560017  0.8229338067896498  0.7706589849688208
  0.4648940808889939  0.1546747039949082  0.6043994653413221
  0.4488552098613250  0.1571529038298050  0.8535603008704487
  0.4495346723621433  0.4872456700707368  0.6876437984444673
  0.4758341299073060  0.4829310211406062  0.9354920146621686
  0.9492783453321849  0.3540336720740451  0.4741819616245416
  0.1789951078455408  0.5862622061671394  0.5282472706597742
  0.9816693494092948  0.3373005049135147  0.5227190606979220
  0.6978970065529720  0.5658901565256276  0.5176336431118296
  0.8484994091891365  0.6299252708948214  0.4738717425546124
  0.3234823618236412  0.5414382560248330  0.4828718439225922
  0.4640133706126443  0.8500236845169813  0.4756468760543001
  0.3511312357276330  0.1130760237907881  0.5281585139593098
  0.4676824498838903  0.8421430417221927  0.5243155700850400
  0.8311336785576020  0.0336029292472348  0.5160972821106370
  0.6800991418675200  0.0930490636563390  0.4719478968249121
  0.2053058262519689  0.0899374625753667  0.4833055244917335
  0.0409234381511347  0.6390133718611136  0.9757508038370736
  0.1520476955885231  0.3811752543304637  0.0285287113086618
  0.0249341399044310  0.6483514619776045  0.0244071598602018
  0.6687775717666843  0.4545718854564340  0.0159076997202995
  0.8192684008569108  0.3974417437654930  0.9719124322263999
  0.2936722848375278  0.3965677234537235  0.9835156613693904
  0.5522146611916912  0.1354177931382557  0.9742874773088915
  0.3242435458155133  0.9009636508669946  0.0282437641090814
  0.5120396927078750  0.1525832959395972  0.0229085520699866
  0.8078683462047034  0.9310357406642552  0.0175075870224758
  0.6526233137248864  0.8584864185300933  0.9743253335358063
  0.1786463302229460  0.9480992214267323  0.9825804771308729
 
  0.00000000E+00  0.00000000E+00  0.00000000E+00
  0.00000000E+00  0.00000000E+00  0.00000000E+00
  0.00000000E+00  0.00000000E+00  0.00000000E+00
  0.00000000E+00  0.00000000E+00  0.00000000E+00
  0.00000000E+00  0.00000000E+00  0.00000000E+00
  0.00000000E+00  0.00000000E+00  0.00000000E+00
  0.00000000E+00  0.00000000E+00  0.00000000E+00
  0.00000000E+00  0.00000000E+00  0.00000000E+00
  0.00000000E+00  0.00000000E+00  0.00000000E+00
  0.00000000E+00  0.00000000E+00  0.00000000E+00
  0.00000000E+00  0.00000000E+00  0.00000000E+00
  0.00000000E+00  0.00000000E+00  0.00000000E+00
  0.00000000E+00  0.00000000E+00  0.00000000E+00
  0.00000000E+00  0.00000000E+00  0.00000000E+00
  0.00000000E+00  0.00000000E+00  0.00000000E+00
  0.00000000E+00  0.00000000E+00  0.00000000E+00
  0.00000000E+00  0.00000000E+00  0.00000000E+00
  0.00000000E+00  0.00000000E+00  0.00000000E+00
  0.00000000E+00  0.00000000E+00  0.00000000E+00
  0.00000000E+00  0.00000000E+00  0.00000000E+00
  0.00000000E+00  0.00000000E+00  0.00000000E+00
  0.00000000E+00  0.00000000E+00  0.00000000E+00
  0.00000000E+00  0.00000000E+00  0.00000000E+00
  0.00000000E+00  0.00000000E+00  0.00000000E+00
  0.00000000E+00  0.00000000E+00  0.00000000E+00
  0.00000000E+00  0.00000000E+00  0.00000000E+00
  0.00000000E+00  0.00000000E+00  0.00000000E+00
  0.00000000E+00  0.00000000E+00  0.00000000E+00
  0.00000000E+00  0.00000000E+00  0.00000000E+00
  0.00000000E+00  0.00000000E+00  0.00000000E+00
  0.00000000E+00  0.00000000E+00  0.00000000E+00
  0.00000000E+00  0.00000000E+00  0.00000000E+00
  0.00000000E+00  0.00000000E+00  0.00000000E+00
  0.00000000E+00  0.00000000E+00  0.00000000E+00
  0.00000000E+00  0.00000000E+00  0.00000000E+00
  0.00000000E+00  0.00000000E+00  0.00000000E+00
  0.00000000E+00  0.00000000E+00  0.00000000E+00
  0.00000000E+00  0.00000000E+00  0.00000000E+00
  0.00000000E+00  0.00000000E+00  0.00000000E+00
  0.00000000E+00  0.00000000E+00  0.00000000E+00
  0.00000000E+00  0.00000000E+00  0.00000000E+00
  0.00000000E+00  0.00000000E+00  0.00000000E+00
  0.00000000E+00  0.00000000E+00  0.00000000E+00
  0.00000000E+00  0.00000000E+00  0.00000000E+00
  0.00000000E+00  0.00000000E+00  0.00000000E+00
  0.00000000E+00  0.00000000E+00  0.00000000E+00
  0.00000000E+00  0.00000000E+00  0.00000000E+00
  0.00000000E+00  0.00000000E+00  0.00000000E+00
  0.00000000E+00  0.00000000E+00  0.00000000E+00
  0.00000000E+00  0.00000000E+00  0.00000000E+00
  0.00000000E+00  0.00000000E+00  0.00000000E+00
  0.00000000E+00  0.00000000E+00  0.00000000E+00
  0.00000000E+00  0.00000000E+00  0.00000000E+00
  0.00000000E+00  0.00000000E+00  0.00000000E+00
  0.00000000E+00  0.00000000E+00  0.00000000E+00
  0.00000000E+00  0.00000000E+00  0.00000000E+00
  0.00000000E+00  0.00000000E+00  0.00000000E+00
  0.00000000E+00  0.00000000E+00  0.00000000E+00
  0.00000000E+00  0.00000000E+00  0.00000000E+00
  0.00000000E+00  0.00000000E+00  0.00000000E+00
  0.00000000E+00  0.00000000E+00  0.00000000E+00
  0.00000000E+00  0.00000000E+00  0.00000000E+00
  0.00000000E+00  0.00000000E+00  0.00000000E+00
  0.00000000E+00  0.00000000E+00  0.00000000E+00
  0.00000000E+00  0.00000000E+00  0.00000000E+00
  0.00000000E+00  0.00000000E+00  0.00000000E+00
  0.00000000E+00  0.00000000E+00  0.00000000E+00
  0.00000000E+00  0.00000000E+00  0.00000000E+00
  0.00000000E+00  0.00000000E+00  0.00000000E+00
  0.00000000E+00  0.00000000E+00  0.00000000E+00
  0.00000000E+00  0.00000000E+00  0.00000000E+00
  0.00000000E+00  0.00000000E+00  0.00000000E+00
  0.00000000E+00  0.00000000E+00  0.00000000E+00
  0.00000000E+00  0.00000000E+00  0.00000000E+00
  0.00000000E+00  0.00000000E+00  0.00000000E+00
  0.00000000E+00  0.00000000E+00  0.00000000E+00
  0.00000000E+00  0.00000000E+00  0.00000000E+00
  0.00000000E+00  0.00000000E+00  0.00000000E+00
  0.00000000E+00  0.00000000E+00  0.00000000E+00
  0.00000000E+00  0.00000000E+00  0.00000000E+00
  0.00000000E+00  0.00000000E+00  0.00000000E+00
  0.00000000E+00  0.00000000E+00  0.00000000E+00
  0.00000000E+00  0.00000000E+00  0.00000000E+00
  0.00000000E+00  0.00000000E+00  0.00000000E+00
  0.00000000E+00  0.00000000E+00  0.00000000E+00
  0.00000000E+00  0.00000000E+00  0.00000000E+00
  0.00000000E+00  0.00000000E+00  0.00000000E+00
  0.00000000E+00  0.00000000E+00  0.00000000E+00
  0.00000000E+00  0.00000000E+00  0.00000000E+00
  0.00000000E+00  0.00000000E+00  0.00000000E+00
  0.00000000E+00  0.00000000E+00  0.00000000E+00
  0.00000000E+00  0.00000000E+00  0.00000000E+00
  0.00000000E+00  0.00000000E+00  0.00000000E+00
  0.00000000E+00  0.00000000E+00  0.00000000E+00
  0.00000000E+00  0.00000000E+00  0.00000000E+00
  0.00000000E+00  0.00000000E+00  0.00000000E+00
  0.00000000E+00  0.00000000E+00  0.00000000E+00
  0.00000000E+00  0.00000000E+00  0.00000000E+00
  0.00000000E+00  0.00000000E+00  0.00000000E+00
  0.00000000E+00  0.00000000E+00  0.00000000E+00
  0.00000000E+00  0.00000000E+00  0.00000000E+00
  0.00000000E+00  0.00000000E+00  0.00000000E+00
  0.00000000E+00  0.00000000E+00  0.00000000E+00
  0.00000000E+00  0.00000000E+00  0.00000000E+00
  0.00000000E+00  0.00000000E+00  0.00000000E+00
  0.00000000E+00  0.00000000E+00  0.00000000E+00
  0.00000000E+00  0.00000000E+00  0.00000000E+00
  0.00000000E+00  0.00000000E+00  0.00000000E+00
  0.00000000E+00  0.00000000E+00  0.00000000E+00
  0.00000000E+00  0.00000000E+00  0.00000000E+00
  0.00000000E+00  0.00000000E+00  0.00000000E+00
  0.00000000E+00  0.00000000E+00  0.00000000E+00
  0.00000000E+00  0.00000000E+00  0.00000000E+00
  0.00000000E+00  0.00000000E+00  0.00000000E+00
  0.00000000E+00  0.00000000E+00  0.00000000E+00
  0.00000000E+00  0.00000000E+00  0.00000000E+00
  0.00000000E+00  0.00000000E+00  0.00000000E+00
  0.00000000E+00  0.00000000E+00  0.00000000E+00
  0.00000000E+00  0.00000000E+00  0.00000000E+00
  0.00000000E+00  0.00000000E+00  0.00000000E+00
  0.00000000E+00  0.00000000E+00  0.00000000E+00
  0.00000000E+00  0.00000000E+00  0.00000000E+00
  0.00000000E+00  0.00000000E+00  0.00000000E+00
  0.00000000E+00  0.00000000E+00  0.00000000E+00
  0.00000000E+00  0.00000000E+00  0.00000000E+00
  0.00000000E+00  0.00000000E+00  0.00000000E+00
  0.00000000E+00  0.00000000E+00  0.00000000E+00
  0.00000000E+00  0.00000000E+00  0.00000000E+00
  0.00000000E+00  0.00000000E+00  0.00000000E+00
  0.00000000E+00  0.00000000E+00  0.00000000E+00
  0.00000000E+00  0.00000000E+00  0.00000000E+00
  0.00000000E+00  0.00000000E+00  0.00000000E+00
  0.00000000E+00  0.00000000E+00  0.00000000E+00
  0.00000000E+00  0.00000000E+00  0.00000000E+00
  0.00000000E+00  0.00000000E+00  0.00000000E+00
  0.00000000E+00  0.00000000E+00  0.00000000E+00
  0.00000000E+00  0.00000000E+00  0.00000000E+00
  0.00000000E+00  0.00000000E+00  0.00000000E+00
  0.00000000E+00  0.00000000E+00  0.00000000E+00
  0.00000000E+00  0.00000000E+00  0.00000000E+00
  0.00000000E+00  0.00000000E+00  0.00000000E+00
  0.00000000E+00  0.00000000E+00  0.00000000E+00
  0.00000000E+00  0.00000000E+00  0.00000000E+00
  0.00000000E+00  0.00000000E+00  0.00000000E+00
  0.00000000E+00  0.00000000E+00  0.00000000E+00
  0.00000000E+00  0.00000000E+00  0.00000000E+00
  0.00000000E+00  0.00000000E+00  0.00000000E+00
  0.00000000E+00  0.00000000E+00  0.00000000E+00
  0.00000000E+00  0.00000000E+00  0.00000000E+00
  0.00000000E+00  0.00000000E+00  0.00000000E+00
  0.00000000E+00  0.00000000E+00  0.00000000E+00
  0.00000000E+00  0.00000000E+00  0.00000000E+00
  0.00000000E+00  0.00000000E+00  0.00000000E+00
  0.00000000E+00  0.00000000E+00  0.00000000E+00
  0.00000000E+00  0.00000000E+00  0.00000000E+00
  0.00000000E+00  0.00000000E+00  0.00000000E+00
  0.00000000E+00  0.00000000E+00  0.00000000E+00
  0.00000000E+00  0.00000000E+00  0.00000000E+00
  0.00000000E+00  0.00000000E+00  0.00000000E+00
  0.00000000E+00  0.00000000E+00  0.00000000E+00
  0.00000000E+00  0.00000000E+00  0.00000000E+00
  0.00000000E+00  0.00000000E+00  0.00000000E+00
  0.00000000E+00  0.00000000E+00  0.00000000E+00
  0.00000000E+00  0.00000000E+00  0.00000000E+00
  0.00000000E+00  0.00000000E+00  0.00000000E+00
  0.00000000E+00  0.00000000E+00  0.00000000E+00
  0.00000000E+00  0.00000000E+00  0.00000000E+00
  0.00000000E+00  0.00000000E+00  0.00000000E+00
  0.00000000E+00  0.00000000E+00  0.00000000E+00
  0.00000000E+00  0.00000000E+00  0.00000000E+00
  0.00000000E+00  0.00000000E+00  0.00000000E+00
  0.00000000E+00  0.00000000E+00  0.00000000E+00
  0.00000000E+00  0.00000000E+00  0.00000000E+00
  0.00000000E+00  0.00000000E+00  0.00000000E+00
  0.00000000E+00  0.00000000E+00  0.00000000E+00
  0.00000000E+00  0.00000000E+00  0.00000000E+00
  0.00000000E+00  0.00000000E+00  0.00000000E+00
  0.00000000E+00  0.00000000E+00  0.00000000E+00
  0.00000000E+00  0.00000000E+00  0.00000000E+00
  0.00000000E+00  0.00000000E+00  0.00000000E+00
  0.00000000E+00  0.00000000E+00  0.00000000E+00
  0.00000000E+00  0.00000000E+00  0.00000000E+00
  0.00000000E+00  0.00000000E+00  0.00000000E+00
  0.00000000E+00  0.00000000E+00  0.00000000E+00
  0.00000000E+00  0.00000000E+00  0.00000000E+00
  0.00000000E+00  0.00000000E+00  0.00000000E+00
  0.00000000E+00  0.00000000E+00  0.00000000E+00
  0.00000000E+00  0.00000000E+00  0.00000000E+00
  0.00000000E+00  0.00000000E+00  0.00000000E+00
  0.00000000E+00  0.00000000E+00  0.00000000E+00
  0.00000000E+00  0.00000000E+00  0.00000000E+00
  0.00000000E+00  0.00000000E+00  0.00000000E+00
  0.00000000E+00  0.00000000E+00  0.00000000E+00
  0.00000000E+00  0.00000000E+00  0.00000000E+00
  0.00000000E+00  0.00000000E+00  0.00000000E+00
  0.00000000E+00  0.00000000E+00  0.00000000E+00
  0.00000000E+00  0.00000000E+00  0.00000000E+00
  0.00000000E+00  0.00000000E+00  0.00000000E+00
  0.00000000E+00  0.00000000E+00  0.00000000E+00
  0.00000000E+00  0.00000000E+00  0.00000000E+00
  0.00000000E+00  0.00000000E+00  0.00000000E+00
  0.00000000E+00  0.00000000E+00  0.00000000E+00
  0.00000000E+00  0.00000000E+00  0.00000000E+00
  0.00000000E+00  0.00000000E+00  0.00000000E+00
  0.00000000E+00  0.00000000E+00  0.00000000E+00
  0.00000000E+00  0.00000000E+00  0.00000000E+00
  0.00000000E+00  0.00000000E+00  0.00000000E+00
  0.00000000E+00  0.00000000E+00  0.00000000E+00
  0.00000000E+00  0.00000000E+00  0.00000000E+00
  0.00000000E+00  0.00000000E+00  0.00000000E+00
  0.00000000E+00  0.00000000E+00  0.00000000E+00
  0.00000000E+00  0.00000000E+00  0.00000000E+00
  0.00000000E+00  0.00000000E+00  0.00000000E+00
  0.00000000E+00  0.00000000E+00  0.00000000E+00
  0.00000000E+00  0.00000000E+00  0.00000000E+00
  0.00000000E+00  0.00000000E+00  0.00000000E+00
  0.00000000E+00  0.00000000E+00  0.00000000E+00
  0.00000000E+00  0.00000000E+00  0.00000000E+00
  0.00000000E+00  0.00000000E+00  0.00000000E+00
  0.00000000E+00  0.00000000E+00  0.00000000E+00
  0.00000000E+00  0.00000000E+00  0.00000000E+00
  0.00000000E+00  0.00000000E+00  0.00000000E+00
  0.00000000E+00  0.00000000E+00  0.00000000E+00
  0.00000000E+00  0.00000000E+00  0.00000000E+00
  0.00000000E+00  0.00000000E+00  0.00000000E+00
  0.00000000E+00  0.00000000E+00  0.00000000E+00
  0.00000000E+00  0.00000000E+00  0.00000000E+00
  0.00000000E+00  0.00000000E+00  0.00000000E+00
  0.00000000E+00  0.00000000E+00  0.00000000E+00
  0.00000000E+00  0.00000000E+00  0.00000000E+00
  0.00000000E+00  0.00000000E+00  0.00000000E+00
  0.00000000E+00  0.00000000E+00  0.00000000E+00
  0.00000000E+00  0.00000000E+00  0.00000000E+00
  0.00000000E+00  0.00000000E+00  0.00000000E+00
  0.00000000E+00  0.00000000E+00  0.00000000E+00
  0.00000000E+00  0.00000000E+00  0.00000000E+00
  0.00000000E+00  0.00000000E+00  0.00000000E+00
  0.00000000E+00  0.00000000E+00  0.00000000E+00
  0.00000000E+00  0.00000000E+00  0.00000000E+00
  0.00000000E+00  0.00000000E+00  0.00000000E+00
